# vtk DataFile Version 3.0
STAP++ Post-processing file
ASCII
DATASET UNSTRUCTURED_GRID
POINTS 189 double
0 0 0
0.5 1.20185e-06 0
1 -3.88924e-06 0
1.5 -2.11745e-06 0
2 -3.23399e-06 0
2.5 -5.19212e-06 0
3 -4.17835e-06 0
3.5 -6.36547e-06 0
4 -5.37639e-06 0
4.5 -5.93802e-06 0
5 -6.4374e-06 0
5.5 -5.8282e-06 0
6 -7.16167e-06 0
6.5 -5.86667e-06 0
7 -6.1121e-06 0
7.5 -4.77055e-06 0
8 -3.42772e-06 0
8.5 -3.80148e-06 0
9 -7.57267e-07 0
9.5 -5.00509e-07 0
10 -1.96168e-07 0
0 0.125 0
0.5 0.125005 0
1 0.125002 0
1.5 0.125006 0
2 0.125005 0
2.5 0.125007 0
3 0.125009 0
3.5 0.125009 0
4 0.12501 0
4.5 0.125009 0
5 0.12501 0
5.5 0.125011 0
6 0.125011 0
6.5 0.125011 0
7 0.125009 0
7.5 0.125008 0
8 0.125006 0
8.5 0.125005 0
9 0.125003 0
9.5 0.124999 0
10 0.124999 0
0 0.25 0
0.5 0.249997 0
1 0.249999 0
1.5 0.249998 0
2 0.249996 0
2.5 0.249997 0
3 0.249995 0
3.5 0.249997 0
4 0.249997 0
4.5 0.249997 0
5 0.249997 0
5.5 0.249996 0
6 0.249996 0
6.5 0.249996 0
7 0.249998 0
7.5 0.249999 0
8 0.25 0
8.5 0.25 0
9 0.249999 0
9.5 0.250003 0
10 0.250001 0
0 0.375 0
0.500001 0.374998 0
1 0.375001 0
1.5 0.375 0
2 0.375002 0
2.5 0.375001 0
3 0.375001 0
3.5 0.375001 0
4 0.375 0
4.5 0.375001 0
5 0.375001 0
5.5 0.375002 0
6 0.375001 0
6.5 0.375 0
7 0.375 0
7.5 0.374999 0
8 0.375 0
8.5 0.375 0
9 0.375 0
9.5 0.374996 0
10 0.374995 0
0 0.5 0
0.499999 0.500001 0
1 0.499999 0
1.5 0.499999 0
2 0.5 0
2.5 0.5 0
3 0.500001 0
3.5 0.5 0
4 0.5 0
4.5 0.499999 0
5 0.499999 0
5.5 0.5 0
6 0.5 0
6.5 0.500001 0
7 0.500001 0
7.5 0.5 0
8 0.5 0
8.5 0.499999 0
9 0.5 0
9.5 0.500002 0
10 0.500001 0
0 0.625 0
0.500002 0.625001 0
1 0.625 0
1.5 0.625 0
2 0.624999 0
2.5 0.625 0
3 0.625 0
3.5 0.625001 0
4 0.625001 0
4.5 0.625001 0
5 0.625 0
5.5 0.624999 0
6 0.624999 0
6.5 0.624999 0
7 0.625 0
7.5 0.625001 0
8 0.625001 0
8.5 0.625 0
9 0.625001 0
9.5 0.624996 0
10 0.624997 0
0 0.75 0
0.499996 0.75 0
1 0.75 0
1.5 0.750001 0
2 0.750001 0
2.5 0.75 0
3 0.749999 0
3.5 0.749999 0
4 0.75 0
4.5 0.750001 0
5 0.75 0
5.5 0.750001 0
6 0.75 0
6.5 0.749999 0
7 0.749999 0
7.5 0.749999 0
8 0.75 0
8.5 0.750002 0
9 0.750002 0
9.5 0.750004 0
9.99999 0.750006 0
0 0.875 0
0.500004 0.874998 0
1 0.874999 0
1.5 0.875 0
2 0.875 0
2.5 0.875001 0
3 0.875001 0
3.5 0.875 0
4 0.875 0
4.5 0.874999 0
5 0.875 0
5.5 0.875 0
6 0.875001 0
6.5 0.875001 0
7 0.875 0
7.5 0.875 0
8 0.874998 0
8.5 0.874998 0
9 0.874998 0
9.5 0.875001 0
9.99999 0.875001 0
0 1 0
0.499999 1 0
1 1 0
1.5 1 0
2 1 0
2.5 1 0
3 1 0
3.5 1 0
4 1 0
4.5 1 0
5 1 0
5.5 1 0
6 1 0
6.5 1 0
7 1 0
7.5 1 0
8 1 0
8.5 1 0
9 1 0
9.5 1 0
10 0.999999 0
CELLS 160 800
4 0 1 22 21
4 1 2 23 22
4 2 3 24 23
4 3 4 25 24
4 4 5 26 25
4 5 6 27 26
4 6 7 28 27
4 7 8 29 28
4 8 9 30 29
4 9 10 31 30
4 10 11 32 31
4 11 12 33 32
4 12 13 34 33
4 13 14 35 34
4 14 15 36 35
4 15 16 37 36
4 16 17 38 37
4 17 18 39 38
4 18 19 40 39
4 19 20 41 40
4 21 22 43 42
4 22 23 44 43
4 23 24 45 44
4 24 25 46 45
4 25 26 47 46
4 26 27 48 47
4 27 28 49 48
4 28 29 50 49
4 29 30 51 50
4 30 31 52 51
4 31 32 53 52
4 32 33 54 53
4 33 34 55 54
4 34 35 56 55
4 35 36 57 56
4 36 37 58 57
4 37 38 59 58
4 38 39 60 59
4 39 40 61 60
4 40 41 62 61
4 42 43 64 63
4 43 44 65 64
4 44 45 66 65
4 45 46 67 66
4 46 47 68 67
4 47 48 69 68
4 48 49 70 69
4 49 50 71 70
4 50 51 72 71
4 51 52 73 72
4 52 53 74 73
4 53 54 75 74
4 54 55 76 75
4 55 56 77 76
4 56 57 78 77
4 57 58 79 78
4 58 59 80 79
4 59 60 81 80
4 60 61 82 81
4 61 62 83 82
4 63 64 85 84
4 64 65 86 85
4 65 66 87 86
4 66 67 88 87
4 67 68 89 88
4 68 69 90 89
4 69 70 91 90
4 70 71 92 91
4 71 72 93 92
4 72 73 94 93
4 73 74 95 94
4 74 75 96 95
4 75 76 97 96
4 76 77 98 97
4 77 78 99 98
4 78 79 100 99
4 79 80 101 100
4 80 81 102 101
4 81 82 103 102
4 82 83 104 103
4 84 85 106 105
4 85 86 107 106
4 86 87 108 107
4 87 88 109 108
4 88 89 110 109
4 89 90 111 110
4 90 91 112 111
4 91 92 113 112
4 92 93 114 113
4 93 94 115 114
4 94 95 116 115
4 95 96 117 116
4 96 97 118 117
4 97 98 119 118
4 98 99 120 119
4 99 100 121 120
4 100 101 122 121
4 101 102 123 122
4 102 103 124 123
4 103 104 125 124
4 105 106 127 126
4 106 107 128 127
4 107 108 129 128
4 108 109 130 129
4 109 110 131 130
4 110 111 132 131
4 111 112 133 132
4 112 113 134 133
4 113 114 135 134
4 114 115 136 135
4 115 116 137 136
4 116 117 138 137
4 117 118 139 138
4 118 119 140 139
4 119 120 141 140
4 120 121 142 141
4 121 122 143 142
4 122 123 144 143
4 123 124 145 144
4 124 125 146 145
4 126 127 148 147
4 127 128 149 148
4 128 129 150 149
4 129 130 151 150
4 130 131 152 151
4 131 132 153 152
4 132 133 154 153
4 133 134 155 154
4 134 135 156 155
4 135 136 157 156
4 136 137 158 157
4 137 138 159 158
4 138 139 160 159
4 139 140 161 160
4 140 141 162 161
4 141 142 163 162
4 142 143 164 163
4 143 144 165 164
4 144 145 166 165
4 145 146 167 166
4 147 148 169 168
4 148 149 170 169
4 149 150 171 170
4 150 151 172 171
4 151 152 173 172
4 152 153 174 173
4 153 154 175 174
4 154 155 176 175
4 155 156 177 176
4 156 157 178 177
4 157 158 179 178
4 158 159 180 179
4 159 160 181 180
4 160 161 182 181
4 161 162 183 182
4 162 163 184 183
4 163 164 185 184
4 164 165 186 185
4 165 166 187 186
4 166 167 188 187
CELL_TYPES 160
9
9
9
9
9
9
9
9
9
9
9
9
9
9
9
9
9
9
9
9
9
9
9
9
9
9
9
9
9
9
9
9
9
9
9
9
9
9
9
9
9
9
9
9
9
9
9
9
9
9
9
9
9
9
9
9
9
9
9
9
9
9
9
9
9
9
9
9
9
9
9
9
9
9
9
9
9
9
9
9
9
9
9
9
9
9
9
9
9
9
9
9
9
9
9
9
9
9
9
9
9
9
9
9
9
9
9
9
9
9
9
9
9
9
9
9
9
9
9
9
9
9
9
9
9
9
9
9
9
9
9
9
9
9
9
9
9
9
9
9
9
9
9
9
9
9
9
9
9
9
9
9
9
9
9
9
9
9
9
9
POINT_DATA 189
VECTORS Displacements double
0 0 0.0
-1.62185e-07 1.20185e-06 0.0
1.01859e-07 -3.88924e-06 0.0
-4.41528e-07 -2.11745e-06 0.0
-1.44961e-07 -3.23399e-06 0.0
-1.92485e-07 -5.19212e-06 0.0
-3.60645e-07 -4.17835e-06 0.0
-4.94816e-08 -6.36547e-06 0.0
-3.7934e-07 -5.37639e-06 0.0
-2.0146e-07 -5.93802e-06 0.0
-2.75406e-07 -6.4374e-06 0.0
-3.49104e-07 -5.8282e-06 0.0
-8.01541e-08 -7.16167e-06 0.0
-2.88199e-07 -5.86667e-06 0.0
2.12681e-08 -6.1121e-06 0.0
-1.34085e-07 -4.77055e-06 0.0
-1.6812e-07 -3.42772e-06 0.0
2.1349e-07 -3.80148e-06 0.0
-1.21765e-08 -7.57267e-07 0.0
-4.0727e-08 -5.00509e-07 0.0
-1.74196e-07 -1.96168e-07 0.0
0 0 0.0
-7.74582e-08 4.59603e-06 0.0
4.86855e-07 1.83026e-06 0.0
2.91793e-07 5.64364e-06 0.0
2.46257e-07 5.40474e-06 0.0
1.63546e-07 7.3542e-06 0.0
2.82793e-07 9.21123e-06 0.0
3.36578e-07 8.91288e-06 0.0
3.26079e-07 1.0293e-05 0.0
3.78079e-07 9.46421e-06 0.0
7.57121e-08 1.03499e-05 0.0
1.20136e-07 1.08382e-05 0.0
-2.21672e-08 1.08978e-05 0.0
5.53412e-08 1.12766e-05 0.0
2.53826e-07 9.39513e-06 0.0
4.47773e-08 8.33047e-06 0.0
2.72477e-07 5.80919e-06 0.0
-1.7058e-07 4.88573e-06 0.0
1.74853e-07 3.37209e-06 0.0
2.83644e-07 -9.22536e-07 0.0
-1.15199e-07 -5.1295e-07 0.0
0 0 0.0
-4.41e-07 -3.07567e-06 0.0
-2.94208e-07 -1.05392e-06 0.0
-2.03107e-07 -1.83076e-06 0.0
-4.51931e-08 -3.78e-06 0.0
-1.19344e-07 -3.06058e-06 0.0
-2.90781e-07 -4.50824e-06 0.0
-4.20949e-07 -3.07286e-06 0.0
-7.60496e-08 -3.32033e-06 0.0
-6.75647e-08 -3.27032e-06 0.0
3.48186e-07 -3.38606e-06 0.0
2.20105e-07 -4.48262e-06 0.0
-2.98342e-08 -3.62325e-06 0.0
-9.44187e-08 -3.51381e-06 0.0
-3.97459e-07 -1.82104e-06 0.0
4.34985e-08 -9.28527e-07 0.0
2.88724e-07 -4.83761e-07 0.0
5.58517e-07 -3.6762e-07 0.0
1.23253e-06 -1.16968e-06 0.0
1.7976e-07 3.18235e-06 0.0
3.37823e-06 1.08361e-06 0.0
0 0 0.0
9.89563e-07 -1.52449e-06 0.0
1.25003e-07 1.25254e-06 0.0
1.82542e-07 3.54037e-07 0.0
1.90595e-07 2.30118e-06 0.0
4.48436e-07 1.24861e-06 0.0
2.6652e-07 9.0879e-07 0.0
3.1855e-07 5.90288e-07 0.0
-4.20333e-07 3.06284e-07 0.0
-4.01424e-07 1.42543e-06 0.0
-4.06436e-07 1.26692e-06 0.0
-1.67023e-07 1.83402e-06 0.0
4.34599e-07 8.56124e-07 0.0
2.77987e-07 -6.04367e-08 0.0
1.77569e-07 -4.34585e-07 0.0
-1.92765e-07 -8.34459e-07 0.0
-5.48193e-07 5.85301e-08 0.0
1.79537e-07 1.30713e-07 0.0
8.43338e-07 2.55151e-07 0.0
2.69378e-06 -4.27846e-06 0.0
5.26849e-06 -5.18235e-06 0.0
0 0 0.0
-1.30448e-06 1.44237e-06 0.0
-2.33224e-07 -1.23883e-06 0.0
-6.65748e-07 -1.17905e-06 0.0
-3.46782e-07 -4.83435e-07 0.0
-6.87689e-07 -1.75894e-07 0.0
2.40788e-07 6.69293e-07 0.0
3.2078e-07 -1.22449e-07 0.0
7.57782e-07 -2.33989e-07 0.0
6.47748e-07 -1.17038e-06 0.0
-2.14249e-07 -7.74566e-07 0.0
-2.60575e-07 -2.13864e-07 0.0
-8.27261e-07 3.30832e-07 0.0
-2.88908e-07 1.23391e-06 0.0
2.89524e-08 5.66777e-07 0.0
3.0102e-07 1.04329e-07 0.0
-1.3667e-07 -3.43822e-07 0.0
6.68415e-09 -7.03922e-07 0.0
-7.96686e-07 3.58418e-08 0.0
2.42142e-06 2.28327e-06 0.0
5.91972e-06 7.58219e-07 0.0
0 0 0.0
2.36812e-06 1.41491e-06 0.0
4.35829e-07 4.14151e-07 0.0
1.33535e-06 4.37428e-07 0.0
1.10803e-08 -7.29929e-07 0.0
-6.58396e-09 -4.97223e-07 0.0
-8.37775e-07 -3.2344e-07 0.0
-1.12224e-06 6.60332e-07 0.0
-2.19131e-07 7.02164e-07 0.0
-1.99944e-07 6.09376e-07 0.0
1.13456e-06 3.35538e-08 0.0
7.01951e-07 -9.66941e-07 0.0
5.38924e-07 -6.69539e-07 0.0
-1.22248e-07 -7.38528e-07 0.0
-7.81926e-07 1.83275e-07 0.0
-6.61751e-07 1.13676e-06 0.0
-8.68729e-07 9.27315e-07 0.0
-1.69557e-07 4.52761e-07 0.0
-2.22506e-06 6.40476e-07 0.0
2.20004e-06 -3.90484e-06 0.0
-8.44261e-07 -2.58091e-06 0.0
0 0 0.0
-4.167e-06 -2.04832e-07 0.0
-3.31452e-07 4.76247e-07 0.0
-7.02045e-07 9.78941e-07 0.0
5.79406e-07 5.81671e-07 0.0
1.54689e-06 -2.83002e-07 0.0
6.11515e-07 -5.04751e-07 0.0
1.05086e-06 -8.62372e-07 0.0
-9.01807e-07 -3.78762e-07 0.0
-8.38551e-07 5.53012e-07 0.0
-9.91446e-07 4.86466e-07 0.0
-6.29466e-07 1.05669e-06 0.0
1.01986e-06 -1.86581e-08 0.0
6.8186e-07 -5.49068e-07 0.0
1.68047e-06 -8.65534e-07 0.0
1.19219e-07 -1.20378e-06 0.0
1.71603e-07 -2.94243e-07 0.0
-1.9313e-06 1.53599e-06 0.0
-2.5712e-06 1.79319e-06 0.0
-2.29979e-06 3.82393e-06 0.0
-7.25074e-06 5.5586e-06 0.0
0 0 0.0
4.32517e-06 -2.41247e-06 0.0
-3.72768e-07 -7.32709e-07 0.0
-1.46251e-06 5.04534e-08 0.0
-4.4928e-07 1.36909e-07 0.0
-2.33212e-06 1.14161e-06 0.0
5.5745e-07 5.61822e-07 0.0
1.27441e-07 -1.13518e-07 0.0
1.06084e-06 -1.17197e-07 0.0
1.51118e-06 -1.18486e-06 0.0
-8.18681e-07 -7.93178e-08 0.0
2.97269e-07 -1.20817e-07 0.0
-2.14672e-06 6.13314e-07 0.0
-2.7176e-07 1.06676e-06 0.0
6.45722e-08 1.29606e-10 0.0
8.48537e-07 2.9207e-08 0.0
3.4939e-06 -1.51857e-06 0.0
3.91736e-07 -1.88084e-06 0.0
3.37608e-06 -1.87318e-06 0.0
-4.592e-06 8.22449e-07 0.0
-6.31633e-06 1.46565e-06 0.0
0 0 0.0
-5.64758e-07 2.52758e-07 0.0
2.23203e-06 2.83349e-07 0.0
2.19476e-07 -4.4309e-07 0.0
-1.91583e-06 2.28231e-07 0.0
2.94014e-07 4.11728e-08 0.0
-1.62744e-06 -1.97941e-07 0.0
5.10914e-07 2.6923e-07 0.0
6.41024e-07 -2.66361e-07 0.0
3.89283e-08 1.90464e-07 0.0
1.492e-06 -2.92646e-08 0.0
-1.36147e-06 -8.5407e-08 0.0
4.08553e-07 2.23848e-07 0.0
-1.32022e-06 -3.04113e-07 0.0
-3.36551e-07 2.21884e-07 0.0
1.34188e-06 -2.41269e-07 0.0
-3.64678e-07 -4.61152e-08 0.0
3.73364e-06 6.47414e-08 0.0
-6.40589e-07 4.86545e-08 0.0
-1.39465e-06 2.84486e-07 0.0
3.61122e-06 -1.2806e-06 0.0
SCALARS VonMisesStress double 1
LOOKUP_TABLE default
277259
489104
883216
1.17039e+06
1.46905e+06
1.84202e+06
2.13429e+06
2.32981e+06
2.42396e+06
2.472e+06
2.56496e+06
2.664e+06
2.73217e+06
2.65131e+06
2.39346e+06
1.99042e+06
1.57309e+06
1.20105e+06
645765
115766
66490.2
172810
112816
35006.1
59057.1
26222.2
70284.8
93238.1
162476
197084
204389
199982
182840
211096
244970
289075
291677
257307
185309
125491
170016
217998
239233
251836
246359
278693
343755
461587
606442
682499
710294
687232
688224
725434
789862
831466
784607
662493
496845
358283
283147
311248
364403
184815
174145
93933.4
87658.8
198790
279131
316662
278692
223200
195072
226608
296885
332638
309596
206483
90275.5
22174.4
51426.5
57976.3
95957.3
152434
128093
105634
38048.4
81555.5
151780
153390
96367.4
56806.4
16114
55024.4
132406
170828
128406
49334.8
64250.8
110401
82385
64105.3
117149
201360
236797
81708.4
83266.4
94301.8
138704
94065.3
80204.1
84269.3
54989.7
55147.9
117480
119700
67545.9
62931.1
129687
131812
83136.4
27578.5
140255
209311
382712
523229
157416
177571
128647
94079.5
106928
112177
54899.7
77420.5
114748
97344.8
40161.3
95317.5
133118
99158.6
39706.8
145702
225593
250684
93825.3
273108
464364
77440.1
128735
153632
76162.5
74986.5
100111
104589
60549.3
47208.9
85428.8
93052.8
52063.2
51514.7
104383
101690
71232.2
74950.5
195938
249713
397095
521423
366928
316457
180234
131991
73361.9
119783
99304.5
60447
83001.3
106660
77124.2
54419.5
108993
113604
71654.1
114746
215493
286358
222349
354071
734785
