# vtk DataFile Version 3.0
STAP++ Post-processing file
ASCII
DATASET UNSTRUCTURED_GRID
POINTS 6 double
0 0 0
5 -2.7914e-07 0
10 3.32376e-07 0
0 1 0
5 1 0
10 1 0
CELLS 2 10
4 0 1 4 3
4 1 2 5 4
CELL_TYPES 2
9
9
POINT_DATA 6
VECTORS Displacements double
0 0 0.0
2.79465e-08 -2.7914e-07 0.0
-1.9692e-07 3.32376e-07 0.0
0 0 0.0
-2.85175e-07 3.32976e-08 0.0
6.82961e-07 -1.0467e-07 0.0
SCALARS VonMisesStress double 1
LOOKUP_TABLE default
3895.7
1456.19
4770.83
3895.7
1456.19
4770.83
