# vtk DataFile Version 3.0
STAP++ Post-processing file
ASCII
DATASET UNSTRUCTURED_GRID
POINTS 9 double
0 0 0
4.99999 -5.92774e-05 0
9.99999 -0.000188711 0
0 0.5 0
5 0.499941 0
10 0.499811 0
0 1 0
5.00001 0.999941 0
10 0.999811 0
CELLS 4 20
4 0 1 4 3
4 1 2 5 4
4 3 4 7 6
4 4 5 8 7
CELL_TYPES 4
9
9
9
9
POINT_DATA 9
VECTORS Displacements double
0 0 0.0
-1.05387e-05 -5.92774e-05 0.0
-1.40685e-05 -0.000188711 0.0
0 0 0.0
-4.06046e-20 -5.91097e-05 0.0
-5.42101e-20 -0.000188749 0.0
0 0 0.0
1.05387e-05 -5.92774e-05 0.0
1.40685e-05 -0.000188711 0.0
SCALARS VonMisesStress double 1
LOOKUP_TABLE default
26928.8
22173.9
18748.4
17320.5
17320.5
17320.5
26928.8
22173.9
18748.4
