# vtk DataFile Version 3.0
STAP++ Post-processing file
ASCII
DATASET UNSTRUCTURED_GRID
POINTS 15 double
0 0 0
2.5 -2.49262e-08 0
5 -2.97681e-08 0
7.5 -3.10603e-07 0
10 2.42223e-07 0
0 0.5 0
2.5 0.5 0
5 0.5 0
7.5 0.5 0
10 0.5 0
0 1 0
2.5 1 0
5 1 0
7.5 1 0
10 1 0
CELLS 8 40
4 0 1 6 5
4 1 2 7 6
4 2 3 8 7
4 3 4 9 8
4 5 6 11 10
4 6 7 12 11
4 7 8 13 12
4 8 9 14 13
CELL_TYPES 8
9
9
9
9
9
9
9
9
POINT_DATA 15
VECTORS Displacements double
0 0 0.0
8.09109e-09 -2.49262e-08 0.0
-2.3603e-08 -2.97681e-08 0.0
3.42006e-08 -3.10603e-07 0.0
-8.91809e-08 2.42223e-07 0.0
0 0 0.0
-2.30568e-07 3.95894e-07 0.0
-2.31375e-08 8.58732e-08 0.0
-3.54641e-07 3.27717e-07 0.0
-1.99493e-07 2.95988e-07 0.0
0 0 0.0
4.4322e-08 -1.36989e-08 0.0
-2.41197e-07 1.29542e-08 0.0
-3.45067e-08 3.13454e-08 0.0
-2.2936e-07 -1.24884e-07 0.0
SCALARS VonMisesStress double 1
LOOKUP_TABLE default
8493.47
9845.51
13421.6
15051.7
14516
1478.83
569.841
2803.41
2186.72
979.421
9341.86
9071.9
8419.69
10979.4
14421.1
