# vtk DataFile Version 3.0
STAP++ Post-processing file
ASCII
DATASET UNSTRUCTURED_GRID
POINTS 4221 double
0 0 0
0.0499995 7.01059e-09 0
0.1 7.20416e-08 0
0.15 -4.85877e-07 0
0.2 -5.7874e-07 0
0.25 -1.46273e-07 0
0.3 -4.91491e-08 0
0.35 -3.05435e-07 0
0.4 -9.30628e-08 0
0.45 1.56066e-07 0
0.5 -3.16429e-07 0
0.55 -3.10527e-07 0
0.6 3.67192e-07 0
0.65 7.16613e-07 0
0.7 5.41584e-07 0
0.75 8.04131e-08 0
0.8 9.95739e-08 0
0.85 2.26622e-07 0
0.9 -1.14068e-07 0
0.95 8.41209e-08 0
1 5.38455e-07 0
1.05 3.23065e-07 0
1.1 -2.54581e-07 0
1.15 -5.41911e-07 0
1.2 -1.41741e-07 0
1.25 8.96433e-08 0
1.3 -2.09243e-07 0
1.35 -9.68731e-08 0
1.4 5.03625e-08 0
1.45 -4.24191e-07 0
1.5 -8.13007e-07 0
1.55 -4.12865e-07 0
1.6 2.50365e-07 0
1.65 1.38265e-07 0
1.7 -1.93599e-07 0
1.75 1.37432e-07 0
1.8 2.66657e-07 0
1.85 3.62563e-08 0
1.9 2.81914e-07 0
1.95 6.74022e-07 0
2 6.3734e-07 0
2.05 2.89669e-08 0
2.1 -4.56164e-07 0
2.15 -6.38964e-08 0
2.2 1.86941e-07 0
2.25 3.31656e-08 0
2.3 2.88692e-07 0
2.35 4.15158e-07 0
2.4 2.53546e-08 0
2.45 -5.43972e-07 0
2.5 -5.77721e-07 0
2.55 -1.25159e-09 0
2.6 -1.07334e-07 0
2.65 -5.65223e-07 0
2.7 -3.83243e-07 0
2.75 -1.97802e-07 0
2.8 -3.06462e-07 0
2.85 -2.20935e-07 0
2.9 4.27091e-07 0
2.95 7.95668e-07 0
3 1.31997e-07 0
3.05 -2.4155e-07 0
3.1 7.01522e-08 0
3.15 1.38728e-07 0
3.2 1.43265e-07 0
3.25 3.1941e-07 0
3.3 5.30985e-07 0
3.35 3.85252e-07 0
3.4 -2.55506e-07 0
3.45 -2.83578e-07 0
3.5 3.16986e-07 0
3.55 2.88588e-07 0
3.6 -9.59063e-08 0
3.65 -1.89559e-07 0
3.7 -2.36861e-07 0
3.75 -4.93941e-07 0
3.8 -7.45962e-07 0
3.85 -2.64167e-07 0
3.9 3.16883e-07 0
3.95 -9.31459e-08 0
4 -4.61977e-07 0
4.05 -1.49881e-07 0
4.1 1.26955e-07 0
4.15 9.83848e-08 0
4.2 1.50681e-07 0
4.25 5.93791e-07 0
4.3 4.38429e-07 0
4.35 -3.21414e-07 0
4.4 -2.40283e-07 0
4.45 2.7654e-07 0
4.5 4.85722e-07 0
4.55 4.38623e-07 0
4.6 2.67028e-07 0
4.65 3.23782e-07 0
4.7 -1.18209e-08 0
4.75 -5.69006e-07 0
4.8 -2.36255e-07 0
4.85 1.88106e-07 0
4.9 -1.18431e-07 0
4.95 -5.48407e-07 0
5 -5.15967e-07 0
5.05 -1.69747e-07 0
5.1 -1.93167e-07 0
5.15 -2.23177e-07 0
5.2 2.97508e-07 0
5.25 3.23756e-07 0
5.3 -3.77284e-07 0
5.35 -5.57768e-07 0
5.4 -1.83283e-08 0
5.45 4.07425e-07 0
5.5 3.23855e-07 0
5.55 3.68665e-07 0
5.6 6.50426e-07 0
5.65 2.43891e-07 0
5.7 -2.23503e-07 0
5.75 8.16752e-08 0
5.8 4.21118e-07 0
5.85 3.63713e-07 0
5.9 -1.25255e-07 0
5.95 -3.7042e-07 0
6 -7.05782e-08 0
6.05 -2.59701e-07 0
6.1 -3.86256e-07 0
6.15 1.27727e-07 0
6.2 2.02321e-07 0
6.25 -3.26574e-07 0
6.3 -7.61308e-07 0
6.35 -4.51205e-07 0
6.4 7.78153e-08 0
6.45 -7.16489e-08 0
6.5 -3.7886e-08 0
6.55 3.43059e-07 0
6.6 1.27679e-07 0
6.65 -2.86106e-07 0
6.7 -6.72386e-08 0
6.75 6.3038e-07 0
6.8 7.70866e-07 0
6.85 2.53678e-07 0
6.9 1.53942e-07 0
6.95 2.05329e-07 0
7 -1.52531e-07 0
7.05 -2.29384e-07 0
7.1 1.0038e-07 0
7.15 3.37378e-07 0
7.2 6.01314e-08 0
7.25 -5.37475e-07 0
7.3 -3.64253e-07 0
7.35 1.04431e-07 0
7.4 -1.43249e-07 0
7.45 -2.37231e-07 0
7.5 -3.69438e-08 0
7.55 -2.50161e-07 0
7.6 -7.1043e-07 0
7.65 -7.33832e-07 0
7.7 1.03121e-07 0
7.75 6.00746e-07 0
7.8 2.65127e-07 0
7.85 2.92654e-07 0
7.9 4.35037e-07 0
7.95 1.4565e-07 0
8 -1.06475e-07 0
8.05 1.46531e-07 0
8.1 6.161e-07 0
8.15 2.65192e-07 0
8.2 -3.06339e-07 0
8.25 -9.6776e-08 0
8.3 1.43066e-07 0
8.35 1.31556e-07 0
8.4 1.11723e-07 0
8.45 1.41622e-07 0
8.5 1.05331e-07 0
8.55 -5.36372e-07 0
8.6 -9.60303e-07 0
8.65 -3.3524e-07 0
8.7 7.67868e-08 0
8.75 -1.78657e-07 0
8.8 -2.14647e-07 0
8.85 -2.27216e-08 0
8.9 -5.81177e-08 0
8.95 -2.92862e-07 0
9 1.03976e-08 0
9.05 7.47095e-07 0
9.1 5.90356e-07 0
9.15 -3.60539e-08 0
9.2 -2.18275e-08 0
9.25 1.73296e-07 0
9.3 1.40879e-07 0
9.35 7.03108e-08 0
9.4 3.69184e-07 0
9.45 5.49471e-07 0
9.5 -1.01168e-07 0
9.55 -4.31881e-07 0
9.6 -2.86095e-08 0
9.65 2.36584e-07 0
9.7 9.97524e-08 0
9.75 -4.25613e-07 0
9.8 -5.90575e-07 0
9.85 -3.46837e-07 0
9.9 -3.75522e-07 0
9.95 -1.47988e-07 0
10 2.62997e-08 0
0 0.05 0
0.0500002 0.049999 0
0.0999996 0.0500007 0
0.15 0.0500009 0
0.2 0.0500002 0
0.25 0.0500002 0
0.3 0.0500007 0
0.35 0.0500003 0
0.4 0.0499999 0
0.45 0.0500002 0
0.5 0.0500005 0
0.55 0.0500001 0
0.6 0.0499991 0
0.65 0.0499993 0
0.7 0.0499999 0
0.75 0.0499993 0
0.8 0.0499996 0
0.85 0.0500001 0
0.9 0.0499997 0
0.95 0.0499997 0
1 0.0499994 0
1.05 0.0499997 0
1.1 0.0500007 0
1.15 0.0500002 0
1.2 0.0499998 0
1.25 0.0500004 0
1.3 0.0500005 0
1.35 0.0499999 0
1.4 0.0500001 0
1.45 0.0500011 0
1.5 0.0500009 0
1.55 0.0499999 0
1.6 0.0500002 0
1.65 0.0500003 0
1.7 0.0499999 0
1.75 0.0499997 0
1.8 0.0499998 0
1.85 0.05 0
1.9 0.0499993 0
1.95 0.0499988 0
2 0.0499998 0
2.05 0.0500001 0
2.1 0.0499998 0
2.15 0.0500001 0
2.2 0.0499998 0
2.25 0.0499998 0
2.3 0.0499997 0
2.35 0.0499993 0
2.4 0.0500003 0
2.45 0.0500009 0
2.5 0.0500001 0
2.55 0.0500001 0
2.6 0.0500009 0
2.65 0.0500008 0
2.7 0.0500001 0
2.75 0.0500004 0
2.8 0.0500008 0
2.85 0.0499998 0
2.9 0.0499992 0
2.95 0.0499997 0
3 0.0499999 0
3.05 0.0499999 0
3.1 0.0499997 0
3.15 0.0499998 0
3.2 0.05 0
3.25 0.0499992 0
3.3 0.0499992 0
3.35 0.0500001 0
3.4 0.05 0
3.45 0.0499998 0
3.5 0.0499997 0
3.55 0.0499997 0
3.6 0.0500004 0
3.65 0.0500002 0
3.7 0.0500001 0
3.75 0.0500012 0
3.8 0.0500009 0
3.85 0.0499998 0
3.9 0.0500001 0
3.95 0.0500007 0
4 0.0500003 0
4.05 0.0499997 0
4.1 0.0500002 0
4.15 0.0500001 0
4.2 0.0499992 0
4.25 0.0499994 0
4.3 0.0499999 0
4.35 0.0500001 0
4.4 0.0499999 0
4.45 0.0499993 0
4.5 0.0499996 0
4.55 0.0499997 0
4.6 0.0499991 0
4.65 0.0499997 0
4.7 0.0500003 0
4.75 0.0500003 0
4.8 0.0500002 0
4.85 0.0499999 0
4.9 0.0500005 0
4.95 0.050001 0
5 0.0500001 0
5.05 0.0500003 0
5.1 0.0500008 0
5.15 0.05 0
5.2 0.0499994 0
5.25 0.0500002 0
5.3 0.0500008 0
5.35 0.0500001 0
5.4 0.0499997 0
5.45 0.05 0
5.5 0.0499996 0
5.55 0.0499991 0
5.6 0.0499994 0
5.65 0.0499997 0
5.7 0.05 0
5.75 0.0499995 0
5.8 0.0499993 0
5.85 0.0500001 0
5.9 0.0500001 0
5.95 0.0499999 0
6 0.0500004 0
6.05 0.0500004 0
6.1 0.0500003 0
6.15 0.0499999 0
6.2 0.0499999 0
6.25 0.050001 0
6.3 0.0500009 0
6.35 0.0499999 0
6.4 0.0500004 0
6.45 0.0500005 0
6.5 0.0499997 0
6.55 0.0499995 0
6.6 0.0500003 0
6.65 0.0500003 0
6.7 0.0499993 0
6.75 0.0499992 0
6.8 0.0499995 0
6.85 0.0499994 0
6.9 0.0499996 0
6.95 0.0499997 0
7 0.0500001 0
7.05 0.0500003 0
7.1 0.0499995 0
7.15 0.0499997 0
7.2 0.0500005 0
7.25 0.0500003 0
7.3 0.0500001 0
7.35 0.0500002 0
7.4 0.0500003 0
7.45 0.0500005 0
7.5 0.05 0
7.55 0.0500006 0
7.6 0.0500014 0
7.65 0.0500003 0
7.7 0.0499995 0
7.75 0.05 0
7.8 0.0499998 0
7.85 0.0499992 0
7.9 0.0499994 0
7.95 0.0500002 0
8 0.0499998 0
8.05 0.0499992 0
8.1 0.0499996 0
8.15 0.0499999 0
8.2 0.0500001 0
8.25 0.0499999 0
8.3 0.0499996 0
8.35 0.0500001 0
8.4 0.0499999 0
8.45 0.0499995 0
8.5 0.0500004 0
8.55 0.050001 0
8.6 0.0500007 0
8.65 0.0500004 0
8.7 0.0500002 0
8.75 0.0500006 0
8.8 0.0500003 0
8.85 0.0499997 0
8.9 0.0500005 0
8.95 0.0500005 0
9 0.0499992 0
9.05 0.0499992 0
9.1 0.0499999 0
9.15 0.0499998 0
9.2 0.0499995 0
9.25 0.0499998 0
9.3 0.0500001 0
9.35 0.0499995 0
9.4 0.0499993 0
9.45 0.0499997 0
9.5 0.05 0
9.55 0.0500003 0
9.6 0.0499997 0
9.65 0.0499997 0
9.7 0.0500006 0
9.75 0.0500004 0
9.8 0.0500004 0
9.85 0.0500009 0
9.9 0.0500005 0
9.95 0.0500001 0
10 0.05 0
0 0.1 0
0.0500004 0.0999993 0
0.1 0.0999997 0
0.15 0.1 0
0.2 0.1 0
0.25 0.0999995 0
0.3 0.0999998 0
0.35 0.1 0
0.4 0.1 0
0.45 0.0999998 0
0.5 0.1 0
0.55 0.1 0
0.6 0.1 0
0.65 0.0999997 0
0.7 0.1 0
0.75 0.1 0
0.8 0.1 0
0.85 0.1 0
0.9 0.1 0
0.95 0.1 0
1 0.0999999 0
1.05 0.0999998 0
1.1 0.1 0
1.15 0.1 0
1.2 0.0999997 0
1.25 0.0999995 0
1.3 0.1 0
1.35 0.1 0
1.4 0.0999996 0
1.45 0.0999999 0
1.5 0.1 0
1.55 0.1 0
1.6 0.0999995 0
1.65 0.1 0
1.7 0.1 0
1.75 0.1 0
1.8 0.1 0
1.85 0.1 0
1.9 0.1 0
1.95 0.0999998 0
2 0.0999998 0
2.05 0.1 0
2.1 0.1 0
2.15 0.0999999 0
2.2 0.0999999 0
2.25 0.0999999 0
2.3 0.1 0
2.35 0.0999998 0
2.4 0.0999997 0
2.45 0.1 0
2.5 0.1 0
2.55 0.0999994 0
2.6 0.0999996 0
2.65 0.1 0
2.7 0.1 0
2.75 0.0999997 0
2.8 0.1 0
2.85 0.1 0
2.9 0.0999998 0
2.95 0.0999997 0
3 0.1 0
3.05 0.1 0
3.1 0.1 0
3.15 0.0999999 0
3.2 0.1 0
3.25 0.1 0
3.3 0.0999998 0
3.35 0.1 0
3.4 0.1 0
3.45 0.1 0
3.5 0.0999997 0
3.55 0.0999997 0
3.6 0.0999999 0
3.65 0.1 0
3.7 0.0999997 0
3.75 0.0999997 0
3.8 0.1 0
3.85 0.0999999 0
3.9 0.0999994 0
3.95 0.1 0
4 0.1 0
4.05 0.1 0
4.1 0.0999997 0
4.15 0.1 0
4.2 0.1 0
4.25 0.0999998 0
4.3 0.1 0
4.35 0.1 0
4.4 0.1 0
4.45 0.1 0
4.5 0.0999998 0
4.55 0.1 0
4.6 0.1 0
4.65 0.0999997 0
4.7 0.1 0
4.75 0.1 0
4.8 0.0999999 0
4.85 0.0999996 0
4.9 0.0999997 0
4.95 0.1 0
5 0.1 0
5.05 0.0999996 0
5.1 0.0999998 0
5.15 0.1 0
5.2 0.0999998 0
5.25 0.0999996 0
5.3 0.1 0
5.35 0.100001 0
5.4 0.0999999 0
5.45 0.0999999 0
5.5 0.1 0
5.55 0.1 0
5.6 0.0999999 0
5.65 0.1 0
5.7 0.1 0
5.75 0.1 0
5.8 0.0999997 0
5.85 0.0999998 0
5.9 0.1 0
5.95 0.1 0
6 0.0999997 0
6.05 0.0999999 0
6.1 0.0999999 0
6.15 0.0999998 0
6.2 0.0999996 0
6.25 0.0999998 0
6.3 0.1 0
6.35 0.1 0
6.4 0.0999995 0
6.45 0.1 0
6.5 0.1 0
6.55 0.0999998 0
6.6 0.1 0
6.65 0.100001 0
6.7 0.1 0
6.75 0.0999997 0
6.8 0.1 0
6.85 0.1 0
6.9 0.1 0
6.95 0.1 0
7 0.1 0
7.05 0.1 0
7.1 0.1 0
7.15 0.0999995 0
7.2 0.0999999 0
7.25 0.1 0
7.3 0.0999999 0
7.35 0.0999996 0
7.4 0.0999998 0
7.45 0.1 0
7.5 0.0999999 0
7.55 0.0999997 0
7.6 0.1 0
7.65 0.100001 0
7.7 0.0999997 0
7.75 0.0999996 0
7.8 0.1 0
7.85 0.1 0
7.9 0.0999999 0
7.95 0.1 0
8 0.1 0
8.05 0.1 0
8.1 0.0999997 0
8.15 0.1 0
8.2 0.1 0
8.25 0.1 0
8.3 0.0999998 0
8.35 0.0999997 0
8.4 0.1 0
8.45 0.0999998 0
8.5 0.0999996 0
8.55 0.1 0
8.6 0.1 0
8.65 0.0999998 0
8.7 0.0999996 0
8.75 0.0999999 0
8.8 0.1 0
8.85 0.1 0
8.9 0.0999998 0
8.95 0.1 0
9 0.1 0
9.05 0.0999996 0
9.1 0.1 0
9.15 0.100001 0
9.2 0.1 0
9.25 0.0999999 0
9.3 0.1 0
9.35 0.1 0
9.4 0.0999998 0
9.45 0.0999998 0
9.5 0.1 0
9.55 0.1 0
9.6 0.0999999 0
9.65 0.0999995 0
9.7 0.0999997 0
9.75 0.1 0
9.8 0.0999999 0
9.85 0.0999997 0
9.9 0.0999999 0
9.95 0.1 0
10 0.0999999 0
0 0.15 0
0.0499998 0.15 0
0.1 0.149999 0
0.15 0.15 0
0.2 0.15 0
0.25 0.15 0
0.3 0.15 0
0.35 0.15 0
0.4 0.15 0
0.45 0.15 0
0.5 0.15 0
0.55 0.15 0
0.6 0.150001 0
0.65 0.15 0
0.7 0.149999 0
0.75 0.15 0
0.8 0.15 0
0.85 0.15 0
0.9 0.15 0
0.95 0.15 0
1 0.15 0
1.05 0.15 0
1.1 0.15 0
1.15 0.15 0
1.2 0.15 0
1.25 0.15 0
1.3 0.15 0
1.35 0.15 0
1.4 0.15 0
1.45 0.149999 0
1.5 0.15 0
1.55 0.150001 0
1.6 0.15 0
1.65 0.15 0
1.7 0.15 0
1.75 0.15 0
1.8 0.15 0
1.85 0.15 0
1.9 0.15 0
1.95 0.15 0
2 0.149999 0
2.05 0.15 0
2.1 0.15 0
2.15 0.15 0
2.2 0.15 0
2.25 0.15 0
2.3 0.15 0
2.35 0.15 0
2.4 0.15 0
2.45 0.15 0
2.5 0.15 0
2.55 0.15 0
2.6 0.15 0
2.65 0.15 0
2.7 0.15 0
2.75 0.15 0
2.8 0.15 0
2.85 0.15 0
2.9 0.15 0
2.95 0.149999 0
3 0.15 0
3.05 0.15 0
3.1 0.15 0
3.15 0.15 0
3.2 0.15 0
3.25 0.15 0
3.3 0.15 0
3.35 0.149999 0
3.4 0.15 0
3.45 0.15 0
3.5 0.15 0
3.55 0.15 0
3.6 0.15 0
3.65 0.15 0
3.7 0.15 0
3.75 0.15 0
3.8 0.15 0
3.85 0.150001 0
3.9 0.15 0
3.95 0.15 0
4 0.15 0
4.05 0.15 0
4.1 0.15 0
4.15 0.15 0
4.2 0.15 0
4.25 0.15 0
4.3 0.15 0
4.35 0.15 0
4.4 0.15 0
4.45 0.150001 0
4.5 0.15 0
4.55 0.15 0
4.6 0.15 0
4.65 0.15 0
4.7 0.15 0
4.75 0.15 0
4.8 0.15 0
4.85 0.15 0
4.9 0.15 0
4.95 0.15 0
5 0.15 0
5.05 0.15 0
5.1 0.15 0
5.15 0.15 0
5.2 0.15 0
5.25 0.149999 0
5.3 0.149999 0
5.35 0.15 0
5.4 0.150001 0
5.45 0.15 0
5.5 0.15 0
5.55 0.15 0
5.6 0.15 0
5.65 0.15 0
5.7 0.15 0
5.75 0.15 0
5.8 0.15 0
5.85 0.15 0
5.9 0.15 0
5.95 0.15 0
6 0.15 0
6.05 0.15 0
6.1 0.15 0
6.15 0.15 0
6.2 0.15 0
6.25 0.149999 0
6.3 0.15 0
6.35 0.150001 0
6.4 0.15 0
6.45 0.15 0
6.5 0.15 0
6.55 0.15 0
6.6 0.15 0
6.65 0.15 0
6.7 0.150001 0
6.75 0.15 0
6.8 0.15 0
6.85 0.15 0
6.9 0.15 0
6.95 0.15 0
7 0.15 0
7.05 0.15 0
7.1 0.15 0
7.15 0.15 0
7.2 0.15 0
7.25 0.15 0
7.3 0.15 0
7.35 0.15 0
7.4 0.15 0
7.45 0.15 0
7.5 0.15 0
7.55 0.15 0
7.6 0.15 0
7.65 0.150001 0
7.7 0.150001 0
7.75 0.15 0
7.8 0.15 0
7.85 0.15 0
7.9 0.15 0
7.95 0.15 0
8 0.15 0
8.05 0.15 0
8.1 0.15 0
8.15 0.15 0
8.2 0.15 0
8.25 0.15 0
8.3 0.15 0
8.35 0.15 0
8.4 0.15 0
8.45 0.15 0
8.5 0.149999 0
8.55 0.15 0
8.6 0.15 0
8.65 0.15 0
8.7 0.15 0
8.75 0.15 0
8.8 0.15 0
8.85 0.15 0
8.9 0.15 0
8.95 0.15 0
9 0.150001 0
9.05 0.15 0
9.1 0.149999 0
9.15 0.15 0
9.2 0.15 0
9.25 0.15 0
9.3 0.15 0
9.35 0.15 0
9.4 0.15 0
9.45 0.15 0
9.5 0.15 0
9.55 0.15 0
9.6 0.15 0
9.65 0.15 0
9.7 0.149999 0
9.75 0.15 0
9.8 0.15 0
9.85 0.15 0
9.9 0.15 0
9.95 0.15 0
10 0.15 0
0 0.2 0
0.05 0.200001 0
0.1 0.2 0
0.15 0.2 0
0.2 0.2 0
0.25 0.2 0
0.3 0.2 0
0.35 0.2 0
0.4 0.2 0
0.45 0.2 0
0.5 0.2 0
0.55 0.2 0
0.6 0.2 0
0.65 0.2 0
0.7 0.2 0
0.75 0.2 0
0.8 0.2 0
0.85 0.2 0
0.9 0.2 0
0.95 0.2 0
1 0.2 0
1.05 0.2 0
1.1 0.2 0
1.15 0.2 0
1.2 0.2 0
1.25 0.2 0
1.3 0.2 0
1.35 0.2 0
1.4 0.2 0
1.45 0.2 0
1.5 0.199999 0
1.55 0.2 0
1.6 0.2 0
1.65 0.2 0
1.7 0.2 0
1.75 0.2 0
1.8 0.2 0
1.85 0.2 0
1.9 0.2 0
1.95 0.2 0
2 0.2 0
2.05 0.199999 0
2.1 0.2 0
2.15 0.2 0
2.2 0.2 0
2.25 0.2 0
2.3 0.2 0
2.35 0.2 0
2.4 0.2 0
2.45 0.2 0
2.5 0.2 0
2.55 0.2 0
2.6 0.2 0
2.65 0.2 0
2.7 0.2 0
2.75 0.2 0
2.8 0.2 0
2.85 0.2 0
2.9 0.200001 0
2.95 0.2 0
3 0.2 0
3.05 0.2 0
3.1 0.2 0
3.15 0.2 0
3.2 0.2 0
3.25 0.2 0
3.3 0.2 0
3.35 0.2 0
3.4 0.2 0
3.45 0.2 0
3.5 0.2 0
3.55 0.2 0
3.6 0.2 0
3.65 0.2 0
3.7 0.2 0
3.75 0.2 0
3.8 0.2 0
3.85 0.2 0
3.9 0.2 0
3.95 0.2 0
4 0.2 0
4.05 0.2 0
4.1 0.2 0
4.15 0.2 0
4.2 0.2 0
4.25 0.2 0
4.3 0.2 0
4.35 0.199999 0
4.4 0.2 0
4.45 0.2 0
4.5 0.2 0
4.55 0.2 0
4.6 0.2 0
4.65 0.2 0
4.7 0.2 0
4.75 0.2 0
4.8 0.2 0
4.85 0.2 0
4.9 0.2 0
4.95 0.2 0
5 0.2 0
5.05 0.2 0
5.1 0.2 0
5.15 0.2 0
5.2 0.2 0
5.25 0.2 0
5.3 0.199999 0
5.35 0.2 0
5.4 0.2 0
5.45 0.2 0
5.5 0.2 0
5.55 0.2 0
5.6 0.2 0
5.65 0.2 0
5.7 0.2 0
5.75 0.2 0
5.8 0.2 0
5.85 0.2 0
5.9 0.2 0
5.95 0.2 0
6 0.2 0
6.05 0.2 0
6.1 0.2 0
6.15 0.2 0
6.2 0.2 0
6.25 0.2 0
6.3 0.2 0
6.35 0.2 0
6.4 0.2 0
6.45 0.2 0
6.5 0.2 0
6.55 0.2 0
6.6 0.2 0
6.65 0.2 0
6.7 0.2 0
6.75 0.200001 0
6.8 0.2 0
6.85 0.2 0
6.9 0.2 0
6.95 0.2 0
7 0.2 0
7.05 0.2 0
7.1 0.2 0
7.15 0.2 0
7.2 0.2 0
7.25 0.2 0
7.3 0.2 0
7.35 0.2 0
7.4 0.2 0
7.45 0.2 0
7.5 0.2 0
7.55 0.2 0
7.6 0.199999 0
7.65 0.2 0
7.7 0.2 0
7.75 0.2 0
7.8 0.2 0
7.85 0.2 0
7.9 0.2 0
7.95 0.2 0
8 0.2 0
8.05 0.2 0
8.1 0.2 0
8.15 0.2 0
8.2 0.2 0
8.25 0.2 0
8.3 0.2 0
8.35 0.2 0
8.4 0.2 0
8.45 0.2 0
8.5 0.2 0
8.55 0.199999 0
8.6 0.2 0
8.65 0.2 0
8.7 0.2 0
8.75 0.2 0
8.8 0.2 0
8.85 0.2 0
8.9 0.2 0
8.95 0.2 0
9 0.2 0
9.05 0.200001 0
9.1 0.2 0
9.15 0.2 0
9.2 0.2 0
9.25 0.2 0
9.3 0.2 0
9.35 0.2 0
9.4 0.2 0
9.45 0.2 0
9.5 0.2 0
9.55 0.2 0
9.6 0.2 0
9.65 0.2 0
9.7 0.2 0
9.75 0.2 0
9.8 0.2 0
9.85 0.2 0
9.9 0.2 0
9.95 0.2 0
10 0.2 0
0 0.25 0
0.0499997 0.25 0
0.1 0.25 0
0.15 0.25 0
0.2 0.25 0
0.25 0.25 0
0.3 0.25 0
0.35 0.25 0
0.4 0.25 0
0.45 0.25 0
0.500001 0.25 0
0.55 0.25 0
0.6 0.25 0
0.65 0.25 0
0.7 0.25 0
0.75 0.25 0
0.8 0.25 0
0.85 0.25 0
0.9 0.25 0
0.95 0.25 0
1 0.25 0
1.05 0.25 0
1.1 0.25 0
1.15 0.25 0
1.2 0.25 0
1.25 0.25 0
1.3 0.25 0
1.35 0.25 0
1.4 0.25 0
1.45 0.25 0
1.5 0.25 0
1.55 0.25 0
1.6 0.25 0
1.65 0.25 0
1.7 0.25 0
1.75 0.25 0
1.8 0.25 0
1.85 0.25 0
1.9 0.25 0
1.95 0.25 0
2 0.250001 0
2.05 0.25 0
2.1 0.249999 0
2.15 0.25 0
2.2 0.25 0
2.25 0.25 0
2.3 0.25 0
2.35 0.25 0
2.4 0.25 0
2.45 0.25 0
2.5 0.25 0
2.55 0.25 0
2.6 0.25 0
2.65 0.25 0
2.7 0.25 0
2.75 0.25 0
2.8 0.25 0
2.85 0.249999 0
2.9 0.25 0
2.95 0.250001 0
3 0.25 0
3.05 0.25 0
3.1 0.25 0
3.15 0.25 0
3.2 0.25 0
3.25 0.25 0
3.3 0.25 0
3.35 0.25 0
3.4 0.25 0
3.45 0.25 0
3.5 0.25 0
3.55 0.25 0
3.6 0.25 0
3.65 0.25 0
3.7 0.25 0
3.75 0.25 0
3.8 0.25 0
3.85 0.25 0
3.9 0.25 0
3.95 0.25 0
4 0.25 0
4.05 0.25 0
4.1 0.25 0
4.15 0.25 0
4.2 0.25 0
4.25 0.250001 0
4.3 0.25 0
4.35 0.25 0
4.4 0.25 0
4.45 0.25 0
4.5 0.25 0
4.55 0.25 0
4.6 0.25 0
4.65 0.25 0
4.7 0.25 0
4.75 0.25 0
4.8 0.25 0
4.85 0.25 0
4.9 0.25 0
4.95 0.25 0
5 0.25 0
5.05 0.25 0
5.1 0.25 0
5.15 0.25 0
5.2 0.25 0
5.25 0.250001 0
5.3 0.25 0
5.35 0.25 0
5.4 0.25 0
5.45 0.25 0
5.5 0.25 0
5.55 0.25 0
5.6 0.25 0
5.65 0.25 0
5.7 0.25 0
5.75 0.25 0
5.8 0.25 0
5.85 0.25 0
5.9 0.25 0
5.95 0.25 0
6 0.25 0
6.05 0.25 0
6.1 0.25 0
6.15 0.25 0
6.2 0.25 0
6.25 0.25 0
6.3 0.25 0
6.35 0.25 0
6.4 0.25 0
6.45 0.25 0
6.5 0.25 0
6.55 0.25 0
6.6 0.25 0
6.65 0.25 0
6.7 0.25 0
6.75 0.25 0
6.8 0.25 0
6.85 0.25 0
6.9 0.25 0
6.95 0.25 0
7 0.25 0
7.05 0.25 0
7.1 0.25 0
7.15 0.25 0
7.2 0.25 0
7.25 0.25 0
7.3 0.25 0
7.35 0.25 0
7.4 0.25 0
7.45 0.25 0
7.5 0.25 0
7.55 0.25 0
7.6 0.25 0
7.65 0.249999 0
7.7 0.25 0
7.75 0.25 0
7.8 0.25 0
7.85 0.25 0
7.9 0.25 0
7.95 0.25 0
8 0.25 0
8.05 0.25 0
8.1 0.25 0
8.15 0.25 0
8.2 0.249999 0
8.25 0.25 0
8.3 0.25 0
8.35 0.25 0
8.4 0.25 0
8.45 0.25 0
8.5 0.250001 0
8.55 0.25 0
8.6 0.249999 0
8.65 0.25 0
8.7 0.25 0
8.75 0.25 0
8.8 0.25 0
8.85 0.25 0
8.9 0.25 0
8.95 0.25 0
9 0.25 0
9.05 0.250001 0
9.1 0.250001 0
9.15 0.25 0
9.2 0.25 0
9.25 0.25 0
9.3 0.25 0
9.35 0.25 0
9.4 0.25 0
9.45 0.25 0
9.5 0.25 0
9.55 0.25 0
9.6 0.25 0
9.65 0.25 0
9.7 0.250001 0
9.75 0.25 0
9.8 0.25 0
9.85 0.25 0
9.9 0.25 0
9.95 0.25 0
10 0.25 0
0 0.3 0
0.0499999 0.299999 0
0.0999996 0.300001 0
0.15 0.3 0
0.2 0.3 0
0.25 0.3 0
0.3 0.3 0
0.35 0.3 0
0.4 0.3 0
0.45 0.3 0
0.5 0.3 0
0.55 0.3 0
0.6 0.3 0
0.65 0.3 0
0.7 0.3 0
0.75 0.3 0
0.8 0.3 0
0.85 0.3 0
0.9 0.3 0
0.95 0.3 0
1 0.3 0
1.05 0.3 0
1.1 0.3 0
1.15 0.3 0
1.2 0.299999 0
1.25 0.3 0
1.3 0.3 0
1.35 0.3 0
1.4 0.3 0
1.45 0.300001 0
1.5 0.3 0
1.55 0.3 0
1.6 0.3 0
1.65 0.300001 0
1.7 0.3 0
1.75 0.299999 0
1.8 0.3 0
1.85 0.3 0
1.9 0.3 0
1.95 0.3 0
2 0.3 0
2.05 0.300001 0
2.1 0.3 0
2.15 0.3 0
2.2 0.3 0
2.25 0.3 0
2.3 0.3 0
2.35 0.3 0
2.4 0.3 0
2.45 0.3 0
2.5 0.3 0
2.55 0.3 0
2.6 0.300001 0
2.65 0.3 0
2.7 0.3 0
2.75 0.3 0
2.8 0.3 0
2.85 0.3 0
2.9 0.299999 0
2.95 0.3 0
3 0.3 0
3.05 0.3 0
3.1 0.3 0
3.15 0.3 0
3.2 0.3 0
3.25 0.3 0
3.3 0.3 0
3.35 0.3 0
3.4 0.3 0
3.45 0.299999 0
3.5 0.3 0
3.55 0.3 0
3.6 0.3 0
3.65 0.3 0
3.7 0.3 0
3.75 0.3 0
3.8 0.3 0
3.85 0.3 0
3.9 0.3 0
3.95 0.300001 0
4 0.3 0
4.05 0.299999 0
4.1 0.3 0
4.15 0.3 0
4.2 0.3 0
4.25 0.3 0
4.3 0.300001 0
4.35 0.3 0
4.4 0.3 0
4.45 0.3 0
4.5 0.3 0
4.55 0.3 0
4.6 0.3 0
4.65 0.3 0
4.7 0.3 0
4.75 0.3 0
4.8 0.3 0
4.85 0.3 0
4.9 0.3 0
4.95 0.3 0
5 0.3 0
5.05 0.3 0
5.1 0.3 0
5.15 0.3 0
5.2 0.3 0
5.25 0.3 0
5.3 0.300001 0
5.35 0.3 0
5.4 0.3 0
5.45 0.3 0
5.5 0.3 0
5.55 0.3 0
5.6 0.3 0
5.65 0.3 0
5.7 0.3 0
5.75 0.3 0
5.8 0.3 0
5.85 0.3 0
5.9 0.3 0
5.95 0.3 0
6 0.3 0
6.05 0.3 0
6.1 0.3 0
6.15 0.3 0
6.2 0.3 0
6.25 0.3 0
6.3 0.3 0
6.35 0.3 0
6.4 0.3 0
6.45 0.300001 0
6.5 0.3 0
6.55 0.3 0
6.6 0.3 0
6.65 0.3 0
6.7 0.299999 0
6.75 0.3 0
6.8 0.3 0
6.85 0.3 0
6.9 0.3 0
6.95 0.3 0
7 0.3 0
7.05 0.3 0
7.1 0.3 0
7.15 0.3 0
7.2 0.3 0
7.25 0.3 0
7.3 0.299999 0
7.35 0.3 0
7.4 0.3 0
7.45 0.3 0
7.5 0.3 0
7.55 0.3 0
7.6 0.300001 0
7.65 0.3 0
7.7 0.299999 0
7.75 0.3 0
7.8 0.3 0
7.85 0.299999 0
7.9 0.3 0
7.95 0.3 0
8 0.3 0
8.05 0.3 0
8.1 0.3 0
8.15 0.300001 0
8.2 0.3 0
8.25 0.3 0
8.3 0.3 0
8.35 0.3 0
8.4 0.3 0
8.45 0.3 0
8.5 0.3 0
8.55 0.300001 0
8.6 0.3 0
8.65 0.3 0
8.7 0.3 0
8.75 0.3 0
8.8 0.3 0
8.85 0.3 0
8.9 0.3 0
8.95 0.3 0
9 0.299999 0
9.05 0.3 0
9.1 0.300001 0
9.15 0.3 0
9.2 0.3 0
9.25 0.3 0
9.3 0.3 0
9.35 0.3 0
9.4 0.3 0
9.45 0.3 0
9.5 0.3 0
9.55 0.3 0
9.6 0.3 0
9.65 0.3 0
9.7 0.3 0
9.75 0.3 0
9.8 0.3 0
9.85 0.3 0
9.9 0.3 0
9.95 0.3 0
10 0.3 0
0 0.35 0
0.0500004 0.35 0
0.0999999 0.35 0
0.15 0.35 0
0.2 0.35 0
0.25 0.349999 0
0.3 0.35 0
0.35 0.35 0
0.4 0.35 0
0.45 0.35 0
0.5 0.35 0
0.55 0.35 0
0.6 0.35 0
0.65 0.35 0
0.7 0.35 0
0.75 0.35 0
0.8 0.35 0
0.85 0.35 0
0.9 0.35 0
0.95 0.35 0
1 0.35 0
1.05 0.35 0
1.1 0.35 0
1.15 0.350001 0
1.2 0.35 0
1.25 0.349999 0
1.3 0.35 0
1.35 0.35 0
1.4 0.349999 0
1.45 0.35 0
1.5 0.35 0
1.55 0.35 0
1.6 0.35 0
1.65 0.35 0
1.7 0.350001 0
1.75 0.35 0
1.8 0.35 0
1.85 0.35 0
1.9 0.35 0
1.95 0.349999 0
2 0.35 0
2.05 0.35 0
2.1 0.350001 0
2.15 0.35 0
2.2 0.35 0
2.25 0.35 0
2.3 0.35 0
2.35 0.35 0
2.4 0.35 0
2.45 0.35 0
2.5 0.35 0
2.55 0.349999 0
2.6 0.35 0
2.65 0.350001 0
2.7 0.35 0
2.75 0.35 0
2.8 0.35 0
2.85 0.35 0
2.9 0.35 0
2.95 0.349999 0
3 0.35 0
3.05 0.35 0
3.1 0.35 0
3.15 0.35 0
3.2 0.35 0
3.25 0.35 0
3.3 0.35 0
3.35 0.35 0
3.4 0.350001 0
3.45 0.35 0
3.5 0.35 0
3.55 0.35 0
3.6 0.35 0
3.65 0.35 0
3.7 0.35 0
3.75 0.35 0
3.8 0.35 0
3.85 0.35 0
3.9 0.35 0
3.95 0.35 0
4 0.350001 0
4.05 0.35 0
4.1 0.35 0
4.15 0.35 0
4.2 0.35 0
4.25 0.35 0
4.3 0.35 0
4.35 0.350001 0
4.4 0.35 0
4.45 0.35 0
4.5 0.35 0
4.55 0.35 0
4.6 0.35 0
4.65 0.35 0
4.7 0.35 0
4.75 0.35 0
4.8 0.35 0
4.85 0.35 0
4.9 0.35 0
4.95 0.35 0
5 0.350001 0
5.05 0.35 0
5.1 0.35 0
5.15 0.35 0
5.2 0.35 0
5.25 0.35 0
5.3 0.35 0
5.35 0.35 0
5.4 0.35 0
5.45 0.35 0
5.5 0.35 0
5.55 0.35 0
5.6 0.35 0
5.65 0.35 0
5.7 0.35 0
5.75 0.35 0
5.8 0.35 0
5.85 0.35 0
5.9 0.35 0
5.95 0.35 0
6 0.35 0
6.05 0.35 0
6.1 0.35 0
6.15 0.35 0
6.2 0.35 0
6.25 0.35 0
6.3 0.35 0
6.35 0.35 0
6.4 0.349999 0
6.45 0.35 0
6.5 0.35 0
6.55 0.35 0
6.6 0.35 0
6.65 0.350001 0
6.7 0.35 0
6.75 0.349999 0
6.8 0.35 0
6.85 0.35 0
6.9 0.35 0
6.95 0.35 0
7 0.35 0
7.05 0.35 0
7.1 0.35 0
7.15 0.35 0
7.2 0.35 0
7.25 0.350001 0
7.3 0.35 0
7.35 0.349999 0
7.4 0.35 0
7.45 0.35 0
7.5 0.35 0
7.55 0.35 0
7.6 0.35 0
7.65 0.350001 0
7.7 0.35 0
7.75 0.35 0
7.8 0.350001 0
7.85 0.35 0
7.9 0.349999 0
7.95 0.35 0
8 0.35 0
8.05 0.35 0
8.1 0.35 0
8.15 0.35 0
8.2 0.350001 0
8.25 0.35 0
8.3 0.35 0
8.35 0.35 0
8.4 0.35 0
8.45 0.35 0
8.5 0.35 0
8.55 0.35 0
8.6 0.35 0
8.65 0.35 0
8.7 0.35 0
8.75 0.35 0
8.8 0.350001 0
8.85 0.35 0
8.9 0.35 0
8.95 0.35 0
9 0.35 0
9.05 0.349999 0
9.1 0.35 0
9.15 0.35 0
9.2 0.35 0
9.25 0.35 0
9.3 0.35 0
9.35 0.35 0
9.4 0.35 0
9.45 0.35 0
9.5 0.35 0
9.55 0.35 0
9.6 0.35 0
9.65 0.349999 0
9.7 0.35 0
9.75 0.35 0
9.8 0.35 0
9.85 0.35 0
9.9 0.35 0
9.95 0.35 0
10 0.35 0
0 0.4 0
0.0499999 0.4 0
0.1 0.399999 0
0.15 0.4 0
0.2 0.400001 0
0.25 0.4 0
0.3 0.4 0
0.35 0.4 0
0.4 0.4 0
0.45 0.4 0
0.5 0.4 0
0.55 0.4 0
0.6 0.4 0
0.65 0.4 0
0.7 0.4 0
0.75 0.4 0
0.8 0.4 0
0.85 0.4 0
0.9 0.4 0
0.95 0.4 0
1 0.4 0
1.05 0.4 0
1.1 0.4 0
1.15 0.4 0
1.2 0.400001 0
1.25 0.4 0
1.3 0.4 0
1.35 0.4 0
1.4 0.4 0
1.45 0.4 0
1.5 0.4 0
1.55 0.4 0
1.6 0.4 0
1.65 0.4 0
1.7 0.4 0
1.75 0.400001 0
1.8 0.4 0
1.85 0.4 0
1.9 0.4 0
1.95 0.4 0
2 0.399999 0
2.05 0.399999 0
2.1 0.4 0
2.15 0.4 0
2.2 0.4 0
2.25 0.4 0
2.3 0.4 0
2.35 0.4 0
2.4 0.4 0
2.45 0.4 0
2.5 0.4 0
2.55 0.4 0
2.6 0.399999 0
2.65 0.4 0
2.7 0.4 0
2.75 0.4 0
2.8 0.4 0
2.85 0.4 0
2.9 0.4 0
2.95 0.4 0
3 0.4 0
3.05 0.4 0
3.1 0.4 0
3.15 0.4 0
3.2 0.4 0
3.25 0.4 0
3.3 0.4 0
3.35 0.4 0
3.4 0.4 0
3.45 0.400001 0
3.5 0.4 0
3.55 0.4 0
3.6 0.4 0
3.65 0.4 0
3.7 0.4 0
3.75 0.4 0
3.8 0.4 0
3.85 0.4 0
3.9 0.4 0
3.95 0.399999 0
4 0.4 0
4.05 0.400001 0
4.1 0.4 0
4.15 0.4 0
4.2 0.4 0
4.25 0.4 0
4.3 0.399999 0
4.35 0.4 0
4.4 0.4 0
4.45 0.4 0
4.5 0.4 0
4.55 0.4 0
4.6 0.4 0
4.65 0.4 0
4.7 0.4 0
4.75 0.4 0
4.8 0.4 0
4.85 0.4 0
4.9 0.4 0
4.95 0.4 0
5 0.4 0
5.05 0.4 0
5.1 0.4 0
5.15 0.4 0
5.2 0.4 0
5.25 0.4 0
5.3 0.4 0
5.35 0.400001 0
5.4 0.4 0
5.45 0.4 0
5.5 0.4 0
5.55 0.4 0
5.6 0.4 0
5.65 0.4 0
5.7 0.4 0
5.75 0.4 0
5.8 0.4 0
5.85 0.4 0
5.9 0.4 0
5.95 0.4 0
6 0.4 0
6.05 0.4 0
6.1 0.4 0
6.15 0.4 0
6.2 0.4 0
6.25 0.4 0
6.3 0.4 0
6.35 0.4 0
6.4 0.4 0
6.45 0.399999 0
6.5 0.4 0
6.55 0.4 0
6.6 0.4 0
6.65 0.4 0
6.7 0.400001 0
6.75 0.4 0
6.8 0.4 0
6.85 0.4 0
6.9 0.4 0
6.95 0.4 0
7 0.4 0
7.05 0.4 0
7.1 0.4 0
7.15 0.4 0
7.2 0.4 0
7.25 0.4 0
7.3 0.400001 0
7.35 0.4 0
7.4 0.4 0
7.45 0.4 0
7.5 0.4 0
7.55 0.4 0
7.6 0.4 0
7.65 0.4 0
7.7 0.400001 0
7.75 0.4 0
7.8 0.4 0
7.85 0.400001 0
7.9 0.4 0
7.95 0.4 0
8 0.4 0
8.05 0.4 0
8.1 0.4 0
8.15 0.399999 0
8.2 0.4 0
8.25 0.4 0
8.3 0.4 0
8.35 0.4 0
8.4 0.4 0
8.45 0.4 0
8.5 0.4 0
8.55 0.4 0
8.6 0.4 0
8.65 0.4 0
8.7 0.4 0
8.75 0.399999 0
8.8 0.4 0
8.85 0.4 0
8.9 0.4 0
8.95 0.4 0
9 0.400001 0
9.05 0.4 0
9.1 0.399999 0
9.15 0.4 0
9.2 0.4 0
9.25 0.4 0
9.3 0.4 0
9.35 0.4 0
9.4 0.4 0
9.45 0.4 0
9.5 0.4 0
9.55 0.400001 0
9.6 0.4 0
9.65 0.4 0
9.7 0.4 0
9.75 0.4 0
9.8 0.4 0
9.85 0.4 0
9.9 0.4 0
9.95 0.4 0
10 0.4 0
0 0.45 0
0.0499999 0.45 0
0.1 0.45 0
0.15 0.45 0
0.2 0.45 0
0.25 0.45 0
0.3 0.45 0
0.35 0.45 0
0.4 0.45 0
0.45 0.45 0
0.5 0.45 0
0.55 0.45 0
0.6 0.45 0
0.65 0.45 0
0.7 0.45 0
0.75 0.45 0
0.8 0.45 0
0.85 0.45 0
0.9 0.45 0
0.95 0.45 0
1 0.45 0
1.05 0.45 0
1.1 0.45 0
1.15 0.45 0
1.2 0.45 0
1.25 0.45 0
1.3 0.45 0
1.35 0.45 0
1.4 0.45 0
1.45 0.45 0
1.5 0.45 0
1.55 0.45 0
1.6 0.45 0
1.65 0.45 0
1.7 0.45 0
1.75 0.45 0
1.8 0.45 0
1.85 0.45 0
1.9 0.45 0
1.95 0.450001 0
2 0.45 0
2.05 0.45 0
2.1 0.45 0
2.15 0.45 0
2.2 0.45 0
2.25 0.45 0
2.3 0.45 0
2.35 0.45 0
2.4 0.45 0
2.45 0.45 0
2.5 0.45 0
2.55 0.450001 0
2.6 0.45 0
2.65 0.45 0
2.7 0.45 0
2.75 0.45 0
2.8 0.45 0
2.85 0.45 0
2.9 0.45 0
2.95 0.45 0
3 0.45 0
3.05 0.45 0
3.1 0.45 0
3.15 0.45 0
3.2 0.45 0
3.25 0.45 0
3.3 0.45 0
3.35 0.45 0
3.4 0.449999 0
3.45 0.45 0
3.5 0.45 0
3.55 0.45 0
3.6 0.45 0
3.65 0.45 0
3.7 0.45 0
3.75 0.45 0
3.8 0.45 0
3.85 0.45 0
3.9 0.45 0
3.95 0.449999 0
4 0.449999 0
4.05 0.45 0
4.1 0.45 0
4.15 0.45 0
4.2 0.45 0
4.25 0.45 0
4.3 0.45 0
4.35 0.45 0
4.4 0.45 0
4.45 0.45 0
4.5 0.45 0
4.55 0.45 0
4.6 0.45 0
4.65 0.45 0
4.7 0.45 0
4.75 0.45 0
4.8 0.45 0
4.85 0.45 0
4.9 0.45 0
4.95 0.45 0
5 0.45 0
5.05 0.45 0
5.1 0.45 0
5.15 0.45 0
5.2 0.45 0
5.25 0.45 0
5.3 0.449999 0
5.35 0.45 0
5.4 0.45 0
5.45 0.45 0
5.5 0.45 0
5.55 0.45 0
5.6 0.45 0
5.65 0.45 0
5.7 0.45 0
5.75 0.45 0
5.8 0.45 0
5.85 0.45 0
5.9 0.45 0
5.95 0.45 0
6 0.45 0
6.05 0.45 0
6.1 0.45 0
6.15 0.45 0
6.2 0.45 0
6.25 0.45 0
6.3 0.45 0
6.35 0.45 0
6.4 0.45 0
6.45 0.45 0
6.5 0.45 0
6.55 0.45 0
6.6 0.45 0
6.65 0.45 0
6.7 0.45 0
6.75 0.450001 0
6.8 0.45 0
6.85 0.45 0
6.9 0.45 0
6.95 0.45 0
7 0.45 0
7.05 0.45 0
7.1 0.45 0
7.15 0.45 0
7.2 0.45 0
7.25 0.45 0
7.3 0.45 0
7.35 0.45 0
7.4 0.45 0
7.45 0.45 0
7.5 0.45 0
7.55 0.45 0
7.6 0.45 0
7.65 0.45 0
7.7 0.45 0
7.75 0.45 0
7.8 0.449999 0
7.85 0.45 0
7.9 0.45 0
7.95 0.45 0
8 0.45 0
8.05 0.450001 0
8.1 0.45 0
8.15 0.45 0
8.2 0.45 0
8.25 0.45 0
8.3 0.45 0
8.35 0.45 0
8.4 0.45 0
8.45 0.45 0
8.5 0.45 0
8.55 0.45 0
8.6 0.45 0
8.65 0.450001 0
8.7 0.45 0
8.75 0.45 0
8.8 0.45 0
8.85 0.45 0
8.9 0.45 0
8.95 0.45 0
9 0.45 0
9.05 0.450001 0
9.1 0.45 0
9.15 0.45 0
9.2 0.45 0
9.25 0.45 0
9.3 0.45 0
9.35 0.45 0
9.4 0.45 0
9.45 0.45 0
9.5 0.45 0
9.55 0.45 0
9.6 0.45 0
9.65 0.45 0
9.7 0.45 0
9.75 0.45 0
9.8 0.45 0
9.85 0.45 0
9.9 0.45 0
9.95 0.449999 0
10 0.449999 0
0 0.5 0
0.05 0.5 0
0.1 0.5 0
0.15 0.5 0
0.2 0.5 0
0.249999 0.5 0
0.3 0.5 0
0.35 0.5 0
0.4 0.5 0
0.45 0.5 0
0.5 0.5 0
0.55 0.5 0
0.6 0.5 0
0.65 0.5 0
0.7 0.5 0
0.75 0.5 0
0.8 0.5 0
0.85 0.5 0
0.9 0.5 0
0.95 0.5 0
1 0.500001 0
1.05 0.5 0
1.1 0.5 0
1.15 0.5 0
1.2 0.5 0
1.25 0.5 0
1.3 0.5 0
1.35 0.5 0
1.4 0.5 0
1.45 0.5 0
1.5 0.5 0
1.55 0.5 0
1.6 0.500001 0
1.65 0.5 0
1.7 0.499999 0
1.75 0.5 0
1.8 0.5 0
1.85 0.5 0
1.9 0.5 0
1.95 0.5 0
2 0.500001 0
2.05 0.5 0
2.1 0.5 0
2.15 0.5 0
2.2 0.5 0
2.25 0.5 0
2.3 0.5 0
2.35 0.5 0
2.4 0.5 0
2.45 0.5 0
2.5 0.5 0
2.55 0.5 0
2.6 0.500001 0
2.65 0.5 0
2.7 0.5 0
2.75 0.5 0
2.8 0.5 0
2.85 0.5 0
2.9 0.5 0
2.95 0.5 0
3 0.5 0
3.05 0.499999 0
3.1 0.5 0
3.15 0.5 0
3.2 0.5 0
3.25 0.5 0
3.3 0.5 0
3.35 0.5 0
3.4 0.5 0
3.45 0.5 0
3.5 0.5 0
3.55 0.5 0
3.6 0.5 0
3.65 0.5 0
3.7 0.5 0
3.75 0.5 0
3.8 0.5 0
3.85 0.5 0
3.9 0.5 0
3.95 0.5 0
4 0.499999 0
4.05 0.5 0
4.1 0.5 0
4.15 0.5 0
4.2 0.5 0
4.25 0.5 0
4.3 0.5 0
4.35 0.5 0
4.4 0.5 0
4.45 0.5 0
4.5 0.5 0
4.55 0.5 0
4.6 0.5 0
4.65 0.5 0
4.7 0.5 0
4.75 0.5 0
4.8 0.5 0
4.85 0.5 0
4.9 0.5 0
4.95 0.5 0
5 0.5 0
5.05 0.5 0
5.1 0.5 0
5.15 0.5 0
5.2 0.5 0
5.25 0.5 0
5.3 0.5 0
5.35 0.499999 0
5.4 0.5 0
5.45 0.5 0
5.5 0.5 0
5.55 0.5 0
5.6 0.5 0
5.65 0.5 0
5.7 0.5 0
5.75 0.5 0
5.8 0.5 0
5.85 0.5 0
5.9 0.5 0
5.95 0.5 0
6 0.5 0
6.05 0.5 0
6.1 0.5 0
6.15 0.5 0
6.2 0.5 0
6.25 0.5 0
6.3 0.5 0
6.35 0.5 0
6.4 0.5 0
6.45 0.5 0
6.5 0.5 0
6.55 0.5 0
6.6 0.5 0
6.65 0.499999 0
6.7 0.499999 0
6.75 0.5 0
6.8 0.5 0
6.85 0.5 0
6.9 0.5 0
6.95 0.5 0
7 0.5 0
7.05 0.5 0
7.1 0.5 0
7.15 0.5 0
7.2 0.5 0
7.25 0.499999 0
7.3 0.5 0
7.35 0.5 0
7.4 0.5 0
7.45 0.5 0
7.5 0.5 0
7.55 0.5 0
7.6 0.5 0
7.65 0.5 0
7.7 0.5 0
7.75 0.5 0
7.8 0.5 0
7.85 0.499999 0
7.9 0.5 0
7.95 0.5 0
8 0.5 0
8.05 0.5 0
8.1 0.500001 0
8.15 0.5 0
8.2 0.5 0
8.25 0.5 0
8.3 0.5 0
8.35 0.5 0
8.4 0.5 0
8.45 0.5 0
8.5 0.5 0
8.55 0.5 0
8.6 0.5 0
8.65 0.5 0
8.7 0.500001 0
8.75 0.5 0
8.8 0.5 0
8.85 0.5 0
8.9 0.5 0
8.95 0.5 0
9 0.5 0
9.05 0.5 0
9.1 0.5 0
9.15 0.5 0
9.2 0.5 0
9.25 0.500001 0
9.3 0.5 0
9.35 0.5 0
9.4 0.5 0
9.45 0.5 0
9.5 0.5 0
9.55 0.499999 0
9.6 0.5 0
9.65 0.5 0
9.7 0.5 0
9.75 0.5 0
9.8 0.5 0
9.85 0.5 0
9.9 0.5 0
9.95 0.5 0
10 0.5 0
0 0.55 0
0.0499999 0.55 0
0.0999998 0.55 0
0.15 0.55 0
0.200001 0.55 0
0.25 0.55 0
0.3 0.550001 0
0.35 0.55 0
0.4 0.55 0
0.45 0.55 0
0.5 0.55 0
0.55 0.55 0
0.6 0.55 0
0.65 0.55 0
0.7 0.55 0
0.75 0.55 0
0.8 0.55 0
0.85 0.55 0
0.9 0.55 0
0.95 0.55 0
1 0.55 0
1.05 0.550001 0
1.1 0.55 0
1.15 0.55 0
1.2 0.55 0
1.25 0.55 0
1.3 0.55 0
1.35 0.55 0
1.4 0.55 0
1.45 0.55 0
1.5 0.55 0
1.55 0.55 0
1.6 0.55 0
1.65 0.550001 0
1.7 0.55 0
1.75 0.55 0
1.8 0.55 0
1.85 0.55 0
1.9 0.55 0
1.95 0.55 0
2 0.55 0
2.05 0.55 0
2.1 0.55 0
2.15 0.55 0
2.2 0.55 0
2.25 0.55 0
2.3 0.55 0
2.35 0.55 0
2.4 0.55 0
2.45 0.55 0
2.5 0.55 0
2.55 0.55 0
2.6 0.55 0
2.65 0.55 0
2.7 0.55 0
2.75 0.55 0
2.8 0.55 0
2.85 0.55 0
2.9 0.55 0
2.95 0.55 0
3 0.550001 0
3.05 0.55 0
3.1 0.55 0
3.15 0.55 0
3.2 0.55 0
3.25 0.55 0
3.3 0.55 0
3.35 0.55 0
3.4 0.55 0
3.45 0.55 0
3.5 0.55 0
3.55 0.55 0
3.6 0.55 0
3.65 0.55 0
3.7 0.55 0
3.75 0.55 0
3.8 0.55 0
3.85 0.55 0
3.9 0.55 0
3.95 0.550001 0
4 0.55 0
4.05 0.549999 0
4.1 0.55 0
4.15 0.55 0
4.2 0.55 0
4.25 0.55 0
4.3 0.55 0
4.35 0.55 0
4.4 0.549999 0
4.45 0.55 0
4.5 0.55 0
4.55 0.55 0
4.6 0.55 0
4.65 0.55 0
4.7 0.55 0
4.75 0.55 0
4.8 0.55 0
4.85 0.55 0
4.9 0.55 0
4.95 0.55 0
5 0.55 0
5.05 0.55 0
5.1 0.55 0
5.15 0.55 0
5.2 0.55 0
5.25 0.55 0
5.3 0.550001 0
5.35 0.55 0
5.4 0.549999 0
5.45 0.55 0
5.5 0.55 0
5.55 0.55 0
5.6 0.55 0
5.65 0.55 0
5.7 0.55 0
5.75 0.55 0
5.8 0.55 0
5.85 0.55 0
5.9 0.55 0
5.95 0.55 0
6 0.55 0
6.05 0.55 0
6.1 0.55 0
6.15 0.55 0
6.2 0.55 0
6.25 0.55 0
6.3 0.55 0
6.35 0.55 0
6.4 0.55 0
6.45 0.550001 0
6.5 0.55 0
6.55 0.55 0
6.6 0.55 0
6.65 0.55 0
6.7 0.549999 0
6.75 0.55 0
6.8 0.55 0
6.85 0.55 0
6.9 0.55 0
6.95 0.55 0
7 0.55 0
7.05 0.55 0
7.1 0.55 0
7.15 0.55 0
7.2 0.55 0
7.25 0.55 0
7.3 0.549999 0
7.35 0.55 0
7.4 0.55 0
7.45 0.55 0
7.5 0.55 0
7.55 0.55 0
7.6 0.55 0
7.65 0.55 0
7.7 0.55 0
7.75 0.55 0
7.8 0.55 0
7.85 0.55 0
7.9 0.55 0
7.95 0.55 0
8 0.55 0
8.05 0.55 0
8.1 0.55 0
8.15 0.550001 0
8.2 0.55 0
8.25 0.55 0
8.3 0.55 0
8.35 0.55 0
8.4 0.55 0
8.45 0.55 0
8.5 0.55 0
8.55 0.55 0
8.6 0.55 0
8.65 0.549999 0
8.7 0.55 0
8.75 0.55 0
8.8 0.55 0
8.85 0.55 0
8.9 0.55 0
8.95 0.55 0
9 0.55 0
9.05 0.55 0
9.1 0.55 0
9.15 0.55 0
9.2 0.549999 0
9.25 0.55 0
9.3 0.55 0
9.35 0.55 0
9.4 0.55 0
9.45 0.55 0
9.5 0.55 0
9.55 0.55 0
9.6 0.55 0
9.65 0.55 0
9.7 0.55 0
9.75 0.55 0
9.8 0.55 0
9.85 0.55 0
9.9 0.55 0
9.95 0.549999 0
10 0.549999 0
0 0.6 0
0.05 0.6 0
0.0999999 0.6 0
0.15 0.6 0
0.2 0.6 0
0.25 0.599999 0
0.3 0.6 0
0.35 0.6 0
0.4 0.6 0
0.45 0.6 0
0.5 0.6 0
0.55 0.6 0
0.6 0.6 0
0.65 0.6 0
0.7 0.6 0
0.75 0.6 0
0.8 0.6 0
0.85 0.6 0
0.9 0.6 0
0.95 0.6 0
1 0.6 0
1.05 0.6 0
1.1 0.6 0
1.15 0.6 0
1.2 0.6 0
1.25 0.6 0
1.3 0.6 0
1.35 0.6 0
1.4 0.6 0
1.45 0.6 0
1.5 0.6 0
1.55 0.6 0
1.6 0.599999 0
1.65 0.6 0
1.7 0.600001 0
1.75 0.6 0
1.8 0.6 0
1.85 0.6 0
1.9 0.6 0
1.95 0.6 0
2 0.6 0
2.05 0.6 0
2.1 0.6 0
2.15 0.6 0
2.2 0.6 0
2.25 0.6 0
2.3 0.6 0
2.35 0.6 0
2.4 0.6 0
2.45 0.6 0
2.5 0.6 0
2.55 0.6 0
2.6 0.6 0
2.65 0.600001 0
2.7 0.6 0
2.75 0.6 0
2.8 0.6 0
2.85 0.6 0
2.9 0.6 0
2.95 0.6 0
3 0.600001 0
3.05 0.600001 0
3.1 0.6 0
3.15 0.6 0
3.2 0.6 0
3.25 0.6 0
3.3 0.6 0
3.35 0.6 0
3.4 0.6 0
3.45 0.6 0
3.5 0.6 0
3.55 0.6 0
3.6 0.6 0
3.65 0.6 0
3.7 0.6 0
3.75 0.6 0
3.8 0.6 0
3.85 0.6 0
3.9 0.6 0
3.95 0.6 0
4 0.600001 0
4.05 0.6 0
4.1 0.599999 0
4.15 0.6 0
4.2 0.6 0
4.25 0.6 0
4.3 0.6 0
4.35 0.600001 0
4.4 0.6 0
4.45 0.6 0
4.5 0.6 0
4.55 0.6 0
4.6 0.6 0
4.65 0.6 0
4.7 0.6 0
4.75 0.6 0
4.8 0.6 0
4.85 0.6 0
4.9 0.6 0
4.95 0.600001 0
5 0.6 0
5.05 0.6 0
5.1 0.6 0
5.15 0.6 0
5.2 0.6 0
5.25 0.6 0
5.3 0.6 0
5.35 0.600001 0
5.4 0.6 0
5.45 0.6 0
5.5 0.6 0
5.55 0.6 0
5.6 0.6 0
5.65 0.6 0
5.7 0.6 0
5.75 0.6 0
5.8 0.6 0
5.85 0.6 0
5.9 0.6 0
5.95 0.6 0
6 0.6 0
6.05 0.6 0
6.1 0.6 0
6.15 0.6 0
6.2 0.6 0
6.25 0.6 0
6.3 0.6 0
6.35 0.6 0
6.4 0.599999 0
6.45 0.6 0
6.5 0.6 0
6.55 0.6 0
6.6 0.6 0
6.65 0.600001 0
6.7 0.6 0
6.75 0.6 0
6.8 0.6 0
6.85 0.6 0
6.9 0.6 0
6.95 0.6 0
7 0.6 0
7.05 0.6 0
7.1 0.6 0
7.15 0.6 0
7.2 0.6 0
7.25 0.600001 0
7.3 0.6 0
7.35 0.599999 0
7.4 0.6 0
7.45 0.6 0
7.5 0.6 0
7.55 0.6 0
7.6 0.6 0
7.65 0.6 0
7.7 0.6 0
7.75 0.6 0
7.8 0.6 0
7.85 0.6 0
7.9 0.6 0
7.95 0.6 0
8 0.6 0
8.05 0.6 0
8.1 0.6 0
8.15 0.6 0
8.2 0.600001 0
8.25 0.6 0
8.3 0.6 0
8.35 0.6 0
8.4 0.6 0
8.45 0.6 0
8.5 0.6 0
8.55 0.6 0
8.6 0.6 0
8.65 0.6 0
8.7 0.599999 0
8.75 0.6 0
8.8 0.6 0
8.85 0.6 0
8.9 0.6 0
8.95 0.6 0
9 0.6 0
9.05 0.6 0
9.1 0.6 0
9.15 0.600001 0
9.2 0.6 0
9.25 0.6 0
9.3 0.6 0
9.35 0.6 0
9.4 0.6 0
9.45 0.6 0
9.5 0.6 0
9.55 0.6 0
9.6 0.6 0
9.65 0.6 0
9.7 0.6 0
9.75 0.6 0
9.8 0.6 0
9.85 0.6 0
9.9 0.6 0
9.95 0.6 0
10 0.600001 0
0 0.65 0
0.0500001 0.65 0
0.0999999 0.65 0
0.15 0.65 0
0.2 0.650001 0
0.25 0.65 0
0.3 0.649999 0
0.35 0.65 0
0.4 0.65 0
0.45 0.65 0
0.5 0.65 0
0.55 0.65 0
0.6 0.65 0
0.65 0.65 0
0.7 0.65 0
0.75 0.65 0
0.8 0.65 0
0.85 0.65 0
0.9 0.65 0
0.95 0.65 0
1 0.65 0
1.05 0.65 0
1.1 0.65 0
1.15 0.65 0
1.2 0.65 0
1.25 0.65 0
1.3 0.65 0
1.35 0.65 0
1.4 0.65 0
1.45 0.65 0
1.5 0.65 0
1.55 0.65 0
1.6 0.65 0
1.65 0.649999 0
1.7 0.65 0
1.75 0.650001 0
1.8 0.65 0
1.85 0.65 0
1.9 0.65 0
1.95 0.65 0
2 0.65 0
2.05 0.65 0
2.1 0.65 0
2.15 0.65 0
2.2 0.65 0
2.25 0.65 0
2.3 0.65 0
2.35 0.65 0
2.4 0.65 0
2.45 0.65 0
2.5 0.65 0
2.55 0.65 0
2.6 0.649999 0
2.65 0.65 0
2.7 0.65 0
2.75 0.65 0
2.8 0.65 0
2.85 0.65 0
2.9 0.65 0
2.95 0.65 0
3 0.65 0
3.05 0.650001 0
3.1 0.65 0
3.15 0.65 0
3.2 0.65 0
3.25 0.65 0
3.3 0.65 0
3.35 0.65 0
3.4 0.65 0
3.45 0.65 0
3.5 0.65 0
3.55 0.65 0
3.6 0.65 0
3.65 0.65 0
3.7 0.65 0
3.75 0.65 0
3.8 0.65 0
3.85 0.65 0
3.9 0.65 0
3.95 0.65 0
4 0.65 0
4.05 0.65 0
4.1 0.65 0
4.15 0.65 0
4.2 0.65 0
4.25 0.65 0
4.3 0.65 0
4.35 0.65 0
4.4 0.650001 0
4.45 0.65 0
4.5 0.65 0
4.55 0.65 0
4.6 0.65 0
4.65 0.65 0
4.7 0.65 0
4.75 0.65 0
4.8 0.65 0
4.85 0.65 0
4.9 0.65 0
4.95 0.65 0
5 0.650001 0
5.05 0.650001 0
5.1 0.65 0
5.15 0.65 0
5.2 0.65 0
5.25 0.649999 0
5.3 0.65 0
5.35 0.65 0
5.4 0.65 0
5.45 0.65 0
5.5 0.65 0
5.55 0.65 0
5.6 0.65 0
5.65 0.65 0
5.7 0.65 0
5.75 0.65 0
5.8 0.65 0
5.85 0.65 0
5.9 0.65 0
5.95 0.65 0
6 0.65 0
6.05 0.65 0
6.1 0.65 0
6.15 0.65 0
6.2 0.65 0
6.25 0.65 0
6.3 0.65 0
6.35 0.65 0
6.4 0.65 0
6.45 0.649999 0
6.5 0.65 0
6.55 0.65 0
6.6 0.65 0
6.65 0.65 0
6.7 0.650001 0
6.75 0.65 0
6.8 0.65 0
6.85 0.65 0
6.9 0.65 0
6.95 0.65 0
7 0.65 0
7.05 0.65 0
7.1 0.65 0
7.15 0.65 0
7.2 0.65 0
7.25 0.65 0
7.3 0.650001 0
7.35 0.65 0
7.4 0.65 0
7.45 0.65 0
7.5 0.65 0
7.55 0.65 0
7.6 0.65 0
7.65 0.65 0
7.7 0.65 0
7.75 0.65 0
7.8 0.65 0
7.85 0.650001 0
7.9 0.65 0
7.95 0.65 0
8 0.65 0
8.05 0.65 0
8.1 0.65 0
8.15 0.65 0
8.2 0.65 0
8.25 0.65 0
8.3 0.65 0
8.35 0.65 0
8.4 0.65 0
8.45 0.65 0
8.5 0.65 0
8.55 0.65 0
8.6 0.65 0
8.65 0.65 0
8.7 0.65 0
8.75 0.65 0
8.8 0.65 0
8.85 0.65 0
8.9 0.65 0
8.95 0.65 0
9 0.65 0
9.05 0.65 0
9.1 0.649999 0
9.15 0.65 0
9.2 0.650001 0
9.25 0.65 0
9.3 0.65 0
9.35 0.65 0
9.4 0.65 0
9.45 0.65 0
9.5 0.65 0
9.55 0.65 0
9.6 0.65 0
9.65 0.65 0
9.7 0.65 0
9.75 0.65 0
9.8 0.65 0
9.85 0.65 0
9.9 0.65 0
9.95 0.65 0
10 0.65 0
0 0.7 0
0.0500002 0.7 0
0.1 0.7 0
0.15 0.7 0
0.2 0.7 0
0.25 0.700001 0
0.3 0.7 0
0.35 0.7 0
0.4 0.7 0
0.45 0.7 0
0.5 0.7 0
0.55 0.7 0
0.6 0.7 0
0.65 0.7 0
0.7 0.7 0
0.75 0.7 0
0.8 0.7 0
0.85 0.7 0
0.9 0.7 0
0.95 0.7 0
1 0.7 0
1.05 0.699999 0
1.1 0.7 0
1.15 0.7 0
1.2 0.7 0
1.25 0.7 0
1.3 0.7 0
1.35 0.7 0
1.4 0.7 0
1.45 0.7 0
1.5 0.7 0
1.55 0.7 0
1.6 0.7 0
1.65 0.7 0
1.7 0.699999 0
1.75 0.7 0
1.8 0.7 0
1.85 0.7 0
1.9 0.7 0
1.95 0.7 0
2 0.7 0
2.05 0.7 0
2.1 0.7 0
2.15 0.7 0
2.2 0.7 0
2.25 0.7 0
2.3 0.7 0
2.35 0.7 0
2.4 0.7 0
2.45 0.7 0
2.5 0.7 0
2.55 0.7 0
2.6 0.7 0
2.65 0.7 0
2.7 0.7 0
2.75 0.7 0
2.8 0.7 0
2.85 0.7 0
2.9 0.7 0
2.95 0.7 0
3 0.7 0
3.05 0.7 0
3.1 0.7 0
3.15 0.7 0
3.2 0.7 0
3.25 0.7 0
3.3 0.7 0
3.35 0.7 0
3.4 0.7 0
3.45 0.7 0
3.5 0.700001 0
3.55 0.7 0
3.6 0.7 0
3.65 0.7 0
3.7 0.7 0
3.75 0.7 0
3.8 0.7 0
3.85 0.7 0
3.9 0.7 0
3.95 0.7 0
4 0.7 0
4.05 0.700001 0
4.1 0.7 0
4.15 0.7 0
4.2 0.7 0
4.25 0.7 0
4.3 0.7 0
4.35 0.699999 0
4.4 0.7 0
4.45 0.7 0
4.5 0.7 0
4.55 0.7 0
4.6 0.7 0
4.65 0.7 0
4.7 0.7 0
4.75 0.7 0
4.8 0.7 0
4.85 0.7 0
4.9 0.699999 0
4.95 0.7 0
5 0.7 0
5.05 0.7 0
5.1 0.7 0
5.15 0.7 0
5.2 0.7 0
5.25 0.7 0
5.3 0.7 0
5.35 0.7 0
5.4 0.7 0
5.45 0.7 0
5.5 0.699999 0
5.55 0.7 0
5.6 0.7 0
5.65 0.7 0
5.7 0.7 0
5.75 0.700001 0
5.8 0.7 0
5.85 0.7 0
5.9 0.7 0
5.95 0.7 0
6 0.7 0
6.05 0.7 0
6.1 0.7 0
6.15 0.7 0
6.2 0.7 0
6.25 0.7 0
6.3 0.7 0
6.35 0.7 0
6.4 0.7 0
6.45 0.7 0
6.5 0.7 0
6.55 0.7 0
6.6 0.7 0
6.65 0.7 0
6.7 0.7 0
6.75 0.7 0
6.8 0.7 0
6.85 0.7 0
6.9 0.7 0
6.95 0.7 0
7 0.7 0
7.05 0.7 0
7.1 0.7 0
7.15 0.7 0
7.2 0.7 0
7.25 0.7 0
7.3 0.7 0
7.35 0.7 0
7.4 0.7 0
7.45 0.7 0
7.5 0.7 0
7.55 0.7 0
7.6 0.7 0
7.65 0.7 0
7.7 0.7 0
7.75 0.7 0
7.8 0.699999 0
7.85 0.7 0
7.9 0.7 0
7.95 0.7 0
8 0.7 0
8.05 0.7 0
8.1 0.7 0
8.15 0.7 0
8.2 0.7 0
8.25 0.7 0
8.3 0.7 0
8.35 0.7 0
8.4 0.7 0
8.45 0.7 0
8.5 0.7 0
8.55 0.7 0
8.6 0.7 0
8.65 0.7 0
8.7 0.7 0
8.75 0.7 0
8.8 0.7 0
8.85 0.7 0
8.9 0.7 0
8.95 0.7 0
9 0.7 0
9.05 0.7 0
9.1 0.7 0
9.15 0.699999 0
9.2 0.7 0
9.25 0.7 0
9.3 0.7 0
9.35 0.7 0
9.4 0.7 0
9.45 0.7 0
9.5 0.7 0
9.55 0.7 0
9.6 0.700001 0
9.65 0.7 0
9.7 0.7 0
9.75 0.7 0
9.8 0.7 0
9.85 0.7 0
9.9 0.7 0
9.95 0.7 0
10 0.700001 0
0 0.75 0
0.0499999 0.75 0
0.1 0.75 0
0.15 0.749999 0
0.2 0.75 0
0.25 0.75 0
0.3 0.75 0
0.35 0.75 0
0.4 0.75 0
0.45 0.75 0
0.5 0.75 0
0.55 0.75 0
0.6 0.75 0
0.65 0.75 0
0.7 0.75 0
0.75 0.749999 0
0.8 0.75 0
0.85 0.75 0
0.9 0.75 0
0.95 0.75 0
1 0.750001 0
1.05 0.75 0
1.1 0.75 0
1.15 0.75 0
1.2 0.75 0
1.25 0.75 0
1.3 0.75 0
1.35 0.75 0
1.4 0.75 0
1.45 0.75 0
1.5 0.75 0
1.55 0.75 0
1.6 0.750001 0
1.65 0.75 0
1.7 0.749999 0
1.75 0.75 0
1.8 0.75 0
1.85 0.75 0
1.9 0.75 0
1.95 0.75 0
2 0.75 0
2.05 0.75 0
2.1 0.75 0
2.15 0.75 0
2.2 0.75 0
2.25 0.75 0
2.3 0.75 0
2.35 0.75 0
2.4 0.75 0
2.45 0.75 0
2.5 0.75 0
2.55 0.75 0
2.6 0.75 0
2.65 0.75 0
2.7 0.75 0
2.75 0.75 0
2.8 0.75 0
2.85 0.75 0
2.9 0.75 0
2.95 0.75 0
3 0.75 0
3.05 0.75 0
3.1 0.75 0
3.15 0.75 0
3.2 0.75 0
3.25 0.75 0
3.3 0.75 0
3.35 0.75 0
3.4 0.75 0
3.45 0.75 0
3.5 0.75 0
3.55 0.75 0
3.6 0.75 0
3.65 0.75 0
3.7 0.75 0
3.75 0.75 0
3.8 0.75 0
3.85 0.75 0
3.9 0.75 0
3.95 0.75 0
4 0.749999 0
4.05 0.75 0
4.1 0.750001 0
4.15 0.75 0
4.2 0.75 0
4.25 0.75 0
4.3 0.75 0
4.35 0.75 0
4.4 0.749999 0
4.45 0.75 0
4.5 0.75 0
4.55 0.75 0
4.6 0.75 0
4.65 0.75 0
4.7 0.75 0
4.75 0.75 0
4.8 0.75 0
4.85 0.750001 0
4.9 0.75 0
4.95 0.749999 0
5 0.75 0
5.05 0.75 0
5.1 0.75 0
5.15 0.75 0
5.2 0.75 0
5.25 0.750001 0
5.3 0.75 0
5.35 0.75 0
5.4 0.750001 0
5.45 0.75 0
5.5 0.75 0
5.55 0.75 0
5.6 0.75 0
5.65 0.75 0
5.7 0.749999 0
5.75 0.75 0
5.8 0.750001 0
5.85 0.75 0
5.9 0.75 0
5.95 0.75 0
6 0.75 0
6.05 0.75 0
6.1 0.75 0
6.15 0.75 0
6.2 0.75 0
6.25 0.749999 0
6.3 0.75 0
6.35 0.75 0
6.4 0.75 0
6.45 0.750001 0
6.5 0.75 0
6.55 0.75 0
6.6 0.75 0
6.65 0.749999 0
6.7 0.75 0
6.75 0.75 0
6.8 0.75 0
6.85 0.75 0
6.9 0.75 0
6.95 0.750001 0
7 0.75 0
7.05 0.75 0
7.1 0.75 0
7.15 0.75 0
7.2 0.75 0
7.25 0.75 0
7.3 0.75 0
7.35 0.75 0
7.4 0.75 0
7.45 0.75 0
7.5 0.75 0
7.55 0.75 0
7.6 0.75 0
7.65 0.75 0
7.7 0.75 0
7.75 0.75 0
7.8 0.75 0
7.85 0.749999 0
7.9 0.75 0
7.95 0.75 0
8 0.75 0
8.05 0.75 0
8.1 0.75 0
8.15 0.75 0
8.2 0.75 0
8.25 0.75 0
8.3 0.75 0
8.35 0.75 0
8.4 0.75 0
8.45 0.75 0
8.5 0.75 0
8.55 0.75 0
8.6 0.75 0
8.65 0.75 0
8.7 0.750001 0
8.75 0.75 0
8.8 0.75 0
8.85 0.75 0
8.9 0.75 0
8.95 0.75 0
9 0.75 0
9.05 0.75 0
9.1 0.750001 0
9.15 0.75 0
9.2 0.75 0
9.25 0.750001 0
9.3 0.75 0
9.35 0.75 0
9.4 0.75 0
9.45 0.75 0
9.5 0.75 0
9.55 0.75 0
9.6 0.75 0
9.65 0.750001 0
9.7 0.75 0
9.75 0.75 0
9.8 0.75 0
9.85 0.75 0
9.9 0.75 0
9.95 0.75 0
10 0.749999 0
0 0.8 0
0.0499999 0.8 0
0.0999996 0.8 0
0.15 0.8 0
0.2 0.799999 0
0.25 0.8 0
0.3 0.8 0
0.35 0.8 0
0.4 0.8 0
0.45 0.8 0
0.5 0.8 0
0.55 0.8 0
0.6 0.8 0
0.65 0.8 0
0.7 0.8 0
0.75 0.8 0
0.8 0.799999 0
0.85 0.8 0
0.9 0.8 0
0.95 0.8 0
1 0.8 0
1.05 0.800001 0
1.1 0.8 0
1.15 0.8 0
1.2 0.8 0
1.25 0.8 0
1.3 0.8 0
1.35 0.8 0
1.4 0.799999 0
1.45 0.8 0
1.5 0.8 0
1.55 0.8 0
1.6 0.8 0
1.65 0.800001 0
1.7 0.8 0
1.75 0.8 0
1.8 0.8 0
1.85 0.8 0
1.9 0.8 0
1.95 0.8 0
2 0.8 0
2.05 0.8 0
2.1 0.8 0
2.15 0.8 0
2.2 0.8 0
2.25 0.8 0
2.3 0.8 0
2.35 0.8 0
2.4 0.8 0
2.45 0.8 0
2.5 0.8 0
2.55 0.8 0
2.6 0.8 0
2.65 0.8 0
2.7 0.8 0
2.75 0.8 0
2.8 0.8 0
2.85 0.8 0
2.9 0.8 0
2.95 0.8 0
3 0.8 0
3.05 0.8 0
3.1 0.799999 0
3.15 0.8 0
3.2 0.800001 0
3.25 0.8 0
3.3 0.8 0
3.35 0.8 0
3.4 0.8 0
3.45 0.8 0
3.5 0.8 0
3.55 0.8 0
3.6 0.8 0
3.65 0.799999 0
3.7 0.8 0
3.75 0.8 0
3.8 0.8 0
3.85 0.8 0
3.9 0.8 0
3.95 0.8 0
4 0.8 0
4.05 0.799999 0
4.1 0.8 0
4.15 0.8 0
4.2 0.8 0
4.25 0.8 0
4.3 0.8 0
4.35 0.8 0
4.4 0.8 0
4.45 0.8 0
4.5 0.8 0
4.55 0.8 0
4.6 0.799999 0
4.65 0.8 0
4.7 0.8 0
4.75 0.8 0
4.8 0.8 0
4.85 0.8 0
4.9 0.800001 0
4.95 0.8 0
5 0.8 0
5.05 0.8 0
5.1 0.8 0
5.15 0.8 0
5.2 0.8 0
5.25 0.8 0
5.3 0.8 0
5.35 0.8 0
5.4 0.8 0
5.45 0.800001 0
5.5 0.800001 0
5.55 0.8 0
5.6 0.8 0
5.65 0.8 0
5.7 0.8 0
5.75 0.799999 0
5.8 0.8 0
5.85 0.8 0
5.9 0.8 0
5.95 0.8 0
6 0.8 0
6.05 0.800001 0
6.1 0.8 0
6.15 0.8 0
6.2 0.8 0
6.25 0.8 0
6.3 0.799999 0
6.35 0.8 0
6.4 0.8 0
6.45 0.8 0
6.5 0.8 0
6.55 0.8 0
6.6 0.8 0
6.65 0.8 0
6.7 0.8 0
6.75 0.8 0
6.8 0.8 0
6.85 0.8 0
6.9 0.799999 0
6.95 0.8 0
7 0.8 0
7.05 0.8 0
7.1 0.8 0
7.15 0.8 0
7.2 0.8 0
7.25 0.8 0
7.3 0.8 0
7.35 0.8 0
7.4 0.8 0
7.45 0.8 0
7.5 0.8 0
7.55 0.8 0
7.6 0.8 0
7.65 0.8 0
7.7 0.8 0
7.75 0.8 0
7.8 0.8 0
7.85 0.8 0
7.9 0.799999 0
7.95 0.8 0
8 0.8 0
8.05 0.8 0
8.1 0.8 0
8.15 0.8 0
8.2 0.8 0
8.25 0.8 0
8.3 0.8 0
8.35 0.800001 0
8.4 0.8 0
8.45 0.8 0
8.5 0.8 0
8.55 0.8 0
8.6 0.8 0
8.65 0.8 0
8.7 0.8 0
8.75 0.800001 0
8.8 0.8 0
8.85 0.8 0
8.9 0.8 0
8.95 0.8 0
9 0.8 0
9.05 0.8 0
9.1 0.8 0
9.15 0.8 0
9.2 0.8 0
9.25 0.8 0
9.3 0.800001 0
9.35 0.8 0
9.4 0.8 0
9.45 0.8 0
9.5 0.8 0
9.55 0.8 0
9.6 0.799999 0
9.65 0.8 0
9.7 0.800001 0
9.75 0.8 0
9.8 0.8 0
9.85 0.8 0
9.9 0.800001 0
9.95 0.799999 0
10 0.799999 0
0 0.85 0
0.0500001 0.85 0
0.1 0.85 0
0.149999 0.850001 0
0.2 0.85 0
0.25 0.849999 0
0.3 0.85 0
0.35 0.850001 0
0.4 0.85 0
0.45 0.85 0
0.5 0.85 0
0.55 0.85 0
0.6 0.85 0
0.65 0.85 0
0.7 0.850001 0
0.75 0.85 0
0.8 0.85 0
0.85 0.85 0
0.9 0.85 0
0.95 0.85 0
1 0.85 0
1.05 0.85 0
1.1 0.85 0
1.15 0.85 0
1.2 0.85 0
1.25 0.85 0
1.3 0.85 0
1.35 0.850001 0
1.4 0.85 0
1.45 0.85 0
1.5 0.85 0
1.55 0.849999 0
1.6 0.849999 0
1.65 0.850001 0
1.7 0.850001 0
1.75 0.85 0
1.8 0.85 0
1.85 0.85 0
1.9 0.85 0
1.95 0.85 0
2 0.85 0
2.05 0.85 0
2.1 0.85 0
2.15 0.85 0
2.2 0.85 0
2.25 0.85 0
2.3 0.85 0
2.35 0.85 0
2.4 0.85 0
2.45 0.85 0
2.5 0.85 0
2.55 0.85 0
2.6 0.85 0
2.65 0.850001 0
2.7 0.85 0
2.75 0.849999 0
2.8 0.85 0
2.85 0.85 0
2.9 0.85 0
2.95 0.85 0
3 0.850001 0
3.05 0.85 0
3.1 0.849999 0
3.15 0.85 0
3.2 0.85 0
3.25 0.85 0
3.3 0.85 0
3.35 0.85 0
3.4 0.85 0
3.45 0.85 0
3.5 0.85 0
3.55 0.85 0
3.6 0.850001 0
3.65 0.85 0
3.7 0.85 0
3.75 0.85 0
3.8 0.85 0
3.85 0.85 0
3.9 0.85 0
3.95 0.85 0
4 0.850001 0
4.05 0.85 0
4.1 0.849999 0
4.15 0.85 0
4.2 0.85 0
4.25 0.85 0
4.3 0.85 0
4.35 0.85 0
4.4 0.85 0
4.45 0.85 0
4.5 0.85 0
4.55 0.85 0
4.6 0.85 0
4.65 0.85 0
4.7 0.85 0
4.75 0.85 0
4.8 0.85 0
4.85 0.849999 0
4.9 0.85 0
4.95 0.850001 0
5 0.85 0
5.05 0.85 0
5.1 0.85 0
5.15 0.85 0
5.2 0.85 0
5.25 0.85 0
5.3 0.85 0
5.35 0.85 0
5.4 0.849999 0
5.45 0.85 0
5.5 0.850001 0
5.55 0.85 0
5.6 0.85 0
5.65 0.85 0
5.7 0.85 0
5.75 0.85 0
5.8 0.85 0
5.85 0.85 0
5.9 0.85 0
5.95 0.85 0
6 0.85 0
6.05 0.85 0
6.1 0.85 0
6.15 0.85 0
6.2 0.85 0
6.25 0.850001 0
6.3 0.85 0
6.35 0.85 0
6.4 0.849999 0
6.45 0.85 0
6.5 0.85 0
6.55 0.85 0
6.6 0.85 0
6.65 0.850001 0
6.7 0.85 0
6.75 0.85 0
6.8 0.85 0
6.85 0.85 0
6.9 0.85 0
6.95 0.85 0
7 0.85 0
7.05 0.85 0
7.1 0.85 0
7.15 0.85 0
7.2 0.85 0
7.25 0.85 0
7.3 0.85 0
7.35 0.849999 0
7.4 0.85 0
7.45 0.850001 0
7.5 0.85 0
7.55 0.85 0
7.6 0.85 0
7.65 0.85 0
7.7 0.85 0
7.75 0.85 0
7.8 0.85 0
7.85 0.850001 0
7.9 0.849999 0
7.95 0.85 0
8 0.85 0
8.05 0.85 0
8.1 0.85 0
8.15 0.85 0
8.2 0.85 0
8.25 0.85 0
8.3 0.85 0
8.35 0.85 0
8.4 0.85 0
8.45 0.85 0
8.5 0.85 0
8.55 0.85 0
8.6 0.85 0
8.65 0.85 0
8.7 0.849999 0
8.75 0.850001 0
8.8 0.85 0
8.85 0.85 0
8.9 0.85 0
8.95 0.85 0
9 0.85 0
9.05 0.85 0
9.1 0.85 0
9.15 0.850001 0
9.2 0.85 0
9.25 0.849999 0
9.3 0.85 0
9.35 0.85 0
9.4 0.85 0
9.45 0.85 0
9.5 0.85 0
9.55 0.85 0
9.6 0.85 0
9.65 0.85 0
9.7 0.85 0
9.75 0.85 0
9.8 0.85 0
9.85 0.85 0
9.9 0.85 0
9.95 0.85 0
10 0.850001 0
0 0.9 0
0.0499999 0.899999 0
0.1 0.9 0
0.15 0.9 0
0.2 0.9 0
0.25 0.9 0
0.3 0.9 0
0.35 0.9 0
0.4 0.9 0
0.45 0.9 0
0.5 0.9 0
0.55 0.9 0
0.6 0.9 0
0.65 0.9 0
0.7 0.9 0
0.75 0.9 0
0.8 0.9 0
0.85 0.9 0
0.9 0.9 0
0.95 0.9 0
1 0.9 0
1.05 0.9 0
1.1 0.9 0
1.15 0.9 0
1.2 0.9 0
1.25 0.9 0
1.3 0.9 0
1.35 0.9 0
1.4 0.9 0
1.45 0.9 0
1.5 0.9 0
1.55 0.9 0
1.6 0.9 0
1.65 0.899999 0
1.7 0.9 0
1.75 0.900001 0
1.8 0.9 0
1.85 0.9 0
1.9 0.9 0
1.95 0.9 0
2 0.9 0
2.05 0.9 0
2.1 0.9 0
2.15 0.9 0
2.2 0.9 0
2.25 0.9 0
2.3 0.9 0
2.35 0.9 0
2.4 0.9 0
2.45 0.9 0
2.5 0.9 0
2.55 0.9 0
2.6 0.9 0
2.65 0.9 0
2.7 0.9 0
2.75 0.9 0
2.8 0.9 0
2.85 0.9 0
2.9 0.9 0
2.95 0.9 0
3 0.9 0
3.05 0.9 0
3.1 0.900001 0
3.15 0.9 0
3.2 0.9 0
3.25 0.9 0
3.3 0.9 0
3.35 0.9 0
3.4 0.9 0
3.45 0.9 0
3.5 0.9 0
3.55 0.9 0
3.6 0.9 0
3.65 0.9 0
3.7 0.9 0
3.75 0.9 0
3.8 0.9 0
3.85 0.9 0
3.9 0.9 0
3.95 0.9 0
4 0.9 0
4.05 0.900001 0
4.1 0.9 0
4.15 0.899999 0
4.2 0.9 0
4.25 0.9 0
4.3 0.9 0
4.35 0.9 0
4.4 0.9 0
4.45 0.9 0
4.5 0.899999 0
4.55 0.9 0
4.6 0.900001 0
4.65 0.9 0
4.7 0.9 0
4.75 0.9 0
4.8 0.9 0
4.85 0.9 0
4.9 0.9 0
4.95 0.9 0
5 0.9 0
5.05 0.9 0
5.1 0.9 0
5.15 0.9 0
5.2 0.9 0
5.25 0.9 0
5.3 0.9 0
5.35 0.9 0
5.4 0.9 0
5.45 0.899999 0
5.5 0.899999 0
5.55 0.9 0
5.6 0.9 0
5.65 0.9 0
5.7 0.9 0
5.75 0.9 0
5.8 0.9 0
5.85 0.9 0
5.9 0.9 0
5.95 0.9 0
6 0.9 0
6.05 0.9 0
6.1 0.9 0
6.15 0.9 0
6.2 0.9 0
6.25 0.9 0
6.3 0.900001 0
6.35 0.9 0
6.4 0.9 0
6.45 0.9 0
6.5 0.9 0
6.55 0.9 0
6.6 0.9 0
6.65 0.9 0
6.7 0.9 0
6.75 0.9 0
6.8 0.9 0
6.85 0.9 0
6.9 0.900001 0
6.95 0.9 0
7 0.9 0
7.05 0.9 0
7.1 0.9 0
7.15 0.9 0
7.2 0.9 0
7.25 0.9 0
7.3 0.9 0
7.35 0.9 0
7.4 0.9 0
7.45 0.9 0
7.5 0.9 0
7.55 0.9 0
7.6 0.9 0
7.65 0.9 0
7.7 0.9 0
7.75 0.9 0
7.8 0.9 0
7.85 0.9 0
7.9 0.900001 0
7.95 0.9 0
8 0.9 0
8.05 0.9 0
8.1 0.9 0
8.15 0.9 0
8.2 0.9 0
8.25 0.9 0
8.3 0.9 0
8.35 0.899999 0
8.4 0.9 0
8.45 0.9 0
8.5 0.9 0
8.55 0.9 0
8.6 0.9 0
8.65 0.9 0
8.7 0.9 0
8.75 0.9 0
8.8 0.9 0
8.85 0.9 0
8.9 0.9 0
8.95 0.9 0
9 0.9 0
9.05 0.9 0
9.1 0.9 0
9.15 0.9 0
9.2 0.9 0
9.25 0.9 0
9.3 0.899999 0
9.35 0.9 0
9.4 0.9 0
9.45 0.9 0
9.5 0.9 0
9.55 0.900001 0
9.6 0.9 0
9.65 0.9 0
9.7 0.9 0
9.75 0.9 0
9.8 0.9 0
9.85 0.9 0
9.9 0.9 0
9.95 0.9 0
10 0.9 0
0 0.95 0
0.0500003 0.949999 0
0.0999997 0.95 0
0.15 0.949999 0
0.2 0.950001 0
0.25 0.950001 0
0.3 0.949999 0
0.35 0.95 0
0.4 0.950001 0
0.45 0.95 0
0.5 0.95 0
0.55 0.95 0
0.6 0.95 0
0.650001 0.949999 0
0.7 0.949999 0
0.749999 0.95 0
0.8 0.95 0
0.85 0.95 0
0.9 0.95 0
0.95 0.95 0
1 0.95 0
1.05 0.95 0
1.1 0.95 0
1.15 0.95 0
1.2 0.95 0
1.25 0.95 0
1.3 0.95 0
1.35 0.95 0
1.4 0.950001 0
1.45 0.95 0
1.5 0.95 0
1.55 0.950001 0
1.6 0.95 0
1.65 0.949999 0
1.7 0.95 0
1.75 0.950001 0
1.8 0.95 0
1.85 0.95 0
1.9 0.950001 0
1.95 0.95 0
2 0.949999 0
2.05 0.95 0
2.1 0.95 0
2.15 0.95 0
2.2 0.95 0
2.25 0.95 0
2.3 0.95 0
2.35 0.95 0
2.4 0.95 0
2.45 0.95 0
2.5 0.95 0
2.55 0.95 0
2.6 0.95 0
2.65 0.949999 0
2.7 0.95 0
2.75 0.950001 0
2.8 0.949999 0
2.85 0.95 0
2.9 0.950001 0
2.95 0.949999 0
3 0.949999 0
3.05 0.950001 0
3.1 0.950001 0
3.15 0.95 0
3.2 0.95 0
3.25 0.95 0
3.3 0.95 0
3.35 0.95 0
3.4 0.95 0
3.45 0.95 0
3.5 0.95 0
3.55 0.95 0
3.6 0.95 0
3.65 0.95 0
3.7 0.95 0
3.75 0.95 0
3.8 0.95 0
3.85 0.95 0
3.9 0.95 0
3.95 0.949999 0
4 0.95 0
4.05 0.950001 0
4.1 0.95 0
4.15 0.949999 0
4.2 0.95 0
4.25 0.95 0
4.3 0.949999 0
4.35 0.95 0
4.4 0.950001 0
4.45 0.95 0
4.5 0.949999 0
4.55 0.95 0
4.6 0.95 0
4.65 0.95 0
4.7 0.95 0
4.75 0.95 0
4.8 0.95 0
4.85 0.95 0
4.9 0.949999 0
4.95 0.95 0
5 0.95 0
5.05 0.95 0
5.1 0.95 0
5.15 0.95 0
5.2 0.95 0
5.25 0.95 0
5.3 0.949999 0
5.35 0.95 0
5.4 0.950001 0
5.45 0.949999 0
5.5 0.949999 0
5.55 0.95 0
5.6 0.95 0
5.65 0.949999 0
5.7 0.95 0
5.75 0.950001 0
5.8 0.95 0
5.85 0.95 0
5.9 0.95 0
5.95 0.95 0
6 0.95 0
6.05 0.95 0
6.1 0.95 0
6.15 0.95 0
6.2 0.95 0
6.25 0.949999 0
6.3 0.95 0
6.35 0.950001 0
6.4 0.95 0
6.45 0.95 0
6.5 0.95 0
6.55 0.95 0
6.6 0.95 0
6.65 0.949999 0
6.7 0.950001 0
6.75 0.95 0
6.8 0.949999 0
6.85 0.95 0
6.9 0.950001 0
6.95 0.95 0
7 0.95 0
7.05 0.95 0
7.1 0.95 0
7.15 0.949999 0
7.2 0.95 0
7.25 0.95 0
7.3 0.95 0
7.35 0.95 0
7.4 0.95 0
7.45 0.95 0
7.5 0.95 0
7.55 0.95 0
7.6 0.95 0
7.65 0.95 0
7.7 0.95 0
7.75 0.95 0
7.8 0.949999 0
7.85 0.95 0
7.9 0.950001 0
7.95 0.95 0
8 0.95 0
8.05 0.950001 0
8.1 0.95 0
8.15 0.949999 0
8.2 0.95 0
8.25 0.95 0
8.3 0.95 0
8.35 0.95 0
8.4 0.95 0
8.45 0.95 0
8.5 0.95 0
8.55 0.95 0
8.6 0.95 0
8.65 0.95 0
8.7 0.95 0
8.75 0.949999 0
8.8 0.95 0
8.85 0.95 0
8.9 0.95 0
8.95 0.95 0
9 0.95 0
9.05 0.95 0
9.1 0.95 0
9.15 0.95 0
9.2 0.950001 0
9.25 0.95 0
9.3 0.949999 0
9.35 0.95 0
9.4 0.95 0
9.45 0.949999 0
9.5 0.95 0
9.55 0.950001 0
9.6 0.95 0
9.65 0.95 0
9.7 0.95 0
9.75 0.95 0
9.8 0.95 0
9.85 0.95 0
9.9 0.95 0
9.95 0.95 0
10 0.95 0
0 1 0
0.0499998 1 0
0.1 1 0
0.15 1 0
0.199999 1 0
0.25 1 0
0.3 1 0
0.35 1 0
0.4 0.999999 0
0.45 1 0
0.5 1 0
0.55 1 0
0.6 0.999999 0
0.65 1 0
0.7 1 0
0.75 0.999999 0
0.8 1 0
0.85 1 0
0.9 1 0
0.95 0.999999 0
1 1 0
1.05 1 0
1.1 1 0
1.15 1 0
1.2 1 0
1.25 1 0
1.3 1 0
1.35 1 0
1.4 1 0
1.45 1 0
1.5 1 0
1.55 1 0
1.6 1 0
1.65 1 0
1.7 1 0
1.75 0.999999 0
1.8 1 0
1.85 1 0
1.9 0.999999 0
1.95 1 0
2 1 0
2.05 1 0
2.1 0.999999 0
2.15 1 0
2.2 1 0
2.25 1 0
2.3 1 0
2.35 1 0
2.4 1 0
2.45 1 0
2.5 1 0
2.55 1 0
2.6 1 0
2.65 1 0
2.7 1 0
2.75 1 0
2.8 1 0
2.85 1 0
2.9 0.999999 0
2.95 1 0
3 1 0
3.05 0.999999 0
3.1 0.999999 0
3.15 1 0
3.2 1 0
3.25 0.999999 0
3.3 1 0
3.35 1 0
3.4 0.999999 0
3.45 1 0
3.5 1 0
3.55 1 0
3.6 1 0
3.65 1 0
3.7 1 0
3.75 1 0
3.8 1 0
3.85 1 0
3.9 1 0
3.95 1 0
4 1 0
4.05 1 0
4.1 1 0
4.15 1 0
4.2 1 0
4.25 0.999999 0
4.3 1 0
4.35 1 0
4.4 0.999999 0
4.45 1 0
4.5 1 0
4.55 1 0
4.6 0.999999 0
4.65 1 0
4.7 1 0
4.75 0.999999 0
4.8 1 0
4.85 1 0
4.9 1 0
4.95 1 0
5 1 0
5.05 1 0
5.1 1 0
5.15 1 0
5.2 1 0
5.25 1 0
5.3 1 0
5.35 1 0
5.4 0.999999 0
5.45 1 0
5.5 1 0
5.55 0.999999 0
5.6 1 0
5.65 1 0
5.7 1 0
5.75 0.999999 0
5.8 1 0
5.85 1 0
5.9 0.999999 0
5.95 1 0
6 1 0
6.05 1 0
6.1 1 0
6.15 1 0
6.2 1 0
6.25 1 0
6.3 1 0
6.35 1 0
6.4 1 0
6.45 1 0
6.5 1 0
6.55 1 0
6.6 1 0
6.65 1 0
6.7 0.999999 0
6.75 1 0
6.8 1 0
6.85 1 0
6.9 0.999999 0
6.95 1 0
7 1 0
7.05 0.999999 0
7.1 1 0
7.15 1 0
7.2 1 0
7.25 0.999999 0
7.3 1 0
7.35 1 0
7.4 1 0
7.45 1 0
7.5 1 0
7.55 1 0
7.6 1 0
7.65 1 0
7.7 1 0
7.75 1 0
7.8 1 0
7.85 1 0
7.9 1 0
7.95 1 0
8 1 0
8.05 0.999999 0
8.1 1 0
8.15 1 0
8.2 0.999999 0
8.25 0.999999 0
8.3 1 0
8.35 1 0
8.4 0.999999 0
8.45 1 0
8.5 1 0
8.55 1 0
8.6 1 0
8.65 1 0
8.7 1 0
8.75 1 0
8.8 1 0
8.85 1 0
8.9 1 0
8.95 1 0
9 1 0
9.05 1 0
9.1 1 0
9.15 1 0
9.2 0.999999 0
9.25 1 0
9.3 1 0
9.35 1 0
9.4 0.999999 0
9.45 1 0
9.5 1 0
9.55 0.999999 0
9.6 1 0
9.65 1 0
9.7 1 0
9.75 0.999999 0
9.8 1 0
9.85 1 0
9.9 1 0
9.95 1 0
10 1 0
CELLS 4000 20000
4 0 1 202 201
4 1 2 203 202
4 2 3 204 203
4 3 4 205 204
4 4 5 206 205
4 5 6 207 206
4 6 7 208 207
4 7 8 209 208
4 8 9 210 209
4 9 10 211 210
4 10 11 212 211
4 11 12 213 212
4 12 13 214 213
4 13 14 215 214
4 14 15 216 215
4 15 16 217 216
4 16 17 218 217
4 17 18 219 218
4 18 19 220 219
4 19 20 221 220
4 20 21 222 221
4 21 22 223 222
4 22 23 224 223
4 23 24 225 224
4 24 25 226 225
4 25 26 227 226
4 26 27 228 227
4 27 28 229 228
4 28 29 230 229
4 29 30 231 230
4 30 31 232 231
4 31 32 233 232
4 32 33 234 233
4 33 34 235 234
4 34 35 236 235
4 35 36 237 236
4 36 37 238 237
4 37 38 239 238
4 38 39 240 239
4 39 40 241 240
4 40 41 242 241
4 41 42 243 242
4 42 43 244 243
4 43 44 245 244
4 44 45 246 245
4 45 46 247 246
4 46 47 248 247
4 47 48 249 248
4 48 49 250 249
4 49 50 251 250
4 50 51 252 251
4 51 52 253 252
4 52 53 254 253
4 53 54 255 254
4 54 55 256 255
4 55 56 257 256
4 56 57 258 257
4 57 58 259 258
4 58 59 260 259
4 59 60 261 260
4 60 61 262 261
4 61 62 263 262
4 62 63 264 263
4 63 64 265 264
4 64 65 266 265
4 65 66 267 266
4 66 67 268 267
4 67 68 269 268
4 68 69 270 269
4 69 70 271 270
4 70 71 272 271
4 71 72 273 272
4 72 73 274 273
4 73 74 275 274
4 74 75 276 275
4 75 76 277 276
4 76 77 278 277
4 77 78 279 278
4 78 79 280 279
4 79 80 281 280
4 80 81 282 281
4 81 82 283 282
4 82 83 284 283
4 83 84 285 284
4 84 85 286 285
4 85 86 287 286
4 86 87 288 287
4 87 88 289 288
4 88 89 290 289
4 89 90 291 290
4 90 91 292 291
4 91 92 293 292
4 92 93 294 293
4 93 94 295 294
4 94 95 296 295
4 95 96 297 296
4 96 97 298 297
4 97 98 299 298
4 98 99 300 299
4 99 100 301 300
4 100 101 302 301
4 101 102 303 302
4 102 103 304 303
4 103 104 305 304
4 104 105 306 305
4 105 106 307 306
4 106 107 308 307
4 107 108 309 308
4 108 109 310 309
4 109 110 311 310
4 110 111 312 311
4 111 112 313 312
4 112 113 314 313
4 113 114 315 314
4 114 115 316 315
4 115 116 317 316
4 116 117 318 317
4 117 118 319 318
4 118 119 320 319
4 119 120 321 320
4 120 121 322 321
4 121 122 323 322
4 122 123 324 323
4 123 124 325 324
4 124 125 326 325
4 125 126 327 326
4 126 127 328 327
4 127 128 329 328
4 128 129 330 329
4 129 130 331 330
4 130 131 332 331
4 131 132 333 332
4 132 133 334 333
4 133 134 335 334
4 134 135 336 335
4 135 136 337 336
4 136 137 338 337
4 137 138 339 338
4 138 139 340 339
4 139 140 341 340
4 140 141 342 341
4 141 142 343 342
4 142 143 344 343
4 143 144 345 344
4 144 145 346 345
4 145 146 347 346
4 146 147 348 347
4 147 148 349 348
4 148 149 350 349
4 149 150 351 350
4 150 151 352 351
4 151 152 353 352
4 152 153 354 353
4 153 154 355 354
4 154 155 356 355
4 155 156 357 356
4 156 157 358 357
4 157 158 359 358
4 158 159 360 359
4 159 160 361 360
4 160 161 362 361
4 161 162 363 362
4 162 163 364 363
4 163 164 365 364
4 164 165 366 365
4 165 166 367 366
4 166 167 368 367
4 167 168 369 368
4 168 169 370 369
4 169 170 371 370
4 170 171 372 371
4 171 172 373 372
4 172 173 374 373
4 173 174 375 374
4 174 175 376 375
4 175 176 377 376
4 176 177 378 377
4 177 178 379 378
4 178 179 380 379
4 179 180 381 380
4 180 181 382 381
4 181 182 383 382
4 182 183 384 383
4 183 184 385 384
4 184 185 386 385
4 185 186 387 386
4 186 187 388 387
4 187 188 389 388
4 188 189 390 389
4 189 190 391 390
4 190 191 392 391
4 191 192 393 392
4 192 193 394 393
4 193 194 395 394
4 194 195 396 395
4 195 196 397 396
4 196 197 398 397
4 197 198 399 398
4 198 199 400 399
4 199 200 401 400
4 201 202 403 402
4 202 203 404 403
4 203 204 405 404
4 204 205 406 405
4 205 206 407 406
4 206 207 408 407
4 207 208 409 408
4 208 209 410 409
4 209 210 411 410
4 210 211 412 411
4 211 212 413 412
4 212 213 414 413
4 213 214 415 414
4 214 215 416 415
4 215 216 417 416
4 216 217 418 417
4 217 218 419 418
4 218 219 420 419
4 219 220 421 420
4 220 221 422 421
4 221 222 423 422
4 222 223 424 423
4 223 224 425 424
4 224 225 426 425
4 225 226 427 426
4 226 227 428 427
4 227 228 429 428
4 228 229 430 429
4 229 230 431 430
4 230 231 432 431
4 231 232 433 432
4 232 233 434 433
4 233 234 435 434
4 234 235 436 435
4 235 236 437 436
4 236 237 438 437
4 237 238 439 438
4 238 239 440 439
4 239 240 441 440
4 240 241 442 441
4 241 242 443 442
4 242 243 444 443
4 243 244 445 444
4 244 245 446 445
4 245 246 447 446
4 246 247 448 447
4 247 248 449 448
4 248 249 450 449
4 249 250 451 450
4 250 251 452 451
4 251 252 453 452
4 252 253 454 453
4 253 254 455 454
4 254 255 456 455
4 255 256 457 456
4 256 257 458 457
4 257 258 459 458
4 258 259 460 459
4 259 260 461 460
4 260 261 462 461
4 261 262 463 462
4 262 263 464 463
4 263 264 465 464
4 264 265 466 465
4 265 266 467 466
4 266 267 468 467
4 267 268 469 468
4 268 269 470 469
4 269 270 471 470
4 270 271 472 471
4 271 272 473 472
4 272 273 474 473
4 273 274 475 474
4 274 275 476 475
4 275 276 477 476
4 276 277 478 477
4 277 278 479 478
4 278 279 480 479
4 279 280 481 480
4 280 281 482 481
4 281 282 483 482
4 282 283 484 483
4 283 284 485 484
4 284 285 486 485
4 285 286 487 486
4 286 287 488 487
4 287 288 489 488
4 288 289 490 489
4 289 290 491 490
4 290 291 492 491
4 291 292 493 492
4 292 293 494 493
4 293 294 495 494
4 294 295 496 495
4 295 296 497 496
4 296 297 498 497
4 297 298 499 498
4 298 299 500 499
4 299 300 501 500
4 300 301 502 501
4 301 302 503 502
4 302 303 504 503
4 303 304 505 504
4 304 305 506 505
4 305 306 507 506
4 306 307 508 507
4 307 308 509 508
4 308 309 510 509
4 309 310 511 510
4 310 311 512 511
4 311 312 513 512
4 312 313 514 513
4 313 314 515 514
4 314 315 516 515
4 315 316 517 516
4 316 317 518 517
4 317 318 519 518
4 318 319 520 519
4 319 320 521 520
4 320 321 522 521
4 321 322 523 522
4 322 323 524 523
4 323 324 525 524
4 324 325 526 525
4 325 326 527 526
4 326 327 528 527
4 327 328 529 528
4 328 329 530 529
4 329 330 531 530
4 330 331 532 531
4 331 332 533 532
4 332 333 534 533
4 333 334 535 534
4 334 335 536 535
4 335 336 537 536
4 336 337 538 537
4 337 338 539 538
4 338 339 540 539
4 339 340 541 540
4 340 341 542 541
4 341 342 543 542
4 342 343 544 543
4 343 344 545 544
4 344 345 546 545
4 345 346 547 546
4 346 347 548 547
4 347 348 549 548
4 348 349 550 549
4 349 350 551 550
4 350 351 552 551
4 351 352 553 552
4 352 353 554 553
4 353 354 555 554
4 354 355 556 555
4 355 356 557 556
4 356 357 558 557
4 357 358 559 558
4 358 359 560 559
4 359 360 561 560
4 360 361 562 561
4 361 362 563 562
4 362 363 564 563
4 363 364 565 564
4 364 365 566 565
4 365 366 567 566
4 366 367 568 567
4 367 368 569 568
4 368 369 570 569
4 369 370 571 570
4 370 371 572 571
4 371 372 573 572
4 372 373 574 573
4 373 374 575 574
4 374 375 576 575
4 375 376 577 576
4 376 377 578 577
4 377 378 579 578
4 378 379 580 579
4 379 380 581 580
4 380 381 582 581
4 381 382 583 582
4 382 383 584 583
4 383 384 585 584
4 384 385 586 585
4 385 386 587 586
4 386 387 588 587
4 387 388 589 588
4 388 389 590 589
4 389 390 591 590
4 390 391 592 591
4 391 392 593 592
4 392 393 594 593
4 393 394 595 594
4 394 395 596 595
4 395 396 597 596
4 396 397 598 597
4 397 398 599 598
4 398 399 600 599
4 399 400 601 600
4 400 401 602 601
4 402 403 604 603
4 403 404 605 604
4 404 405 606 605
4 405 406 607 606
4 406 407 608 607
4 407 408 609 608
4 408 409 610 609
4 409 410 611 610
4 410 411 612 611
4 411 412 613 612
4 412 413 614 613
4 413 414 615 614
4 414 415 616 615
4 415 416 617 616
4 416 417 618 617
4 417 418 619 618
4 418 419 620 619
4 419 420 621 620
4 420 421 622 621
4 421 422 623 622
4 422 423 624 623
4 423 424 625 624
4 424 425 626 625
4 425 426 627 626
4 426 427 628 627
4 427 428 629 628
4 428 429 630 629
4 429 430 631 630
4 430 431 632 631
4 431 432 633 632
4 432 433 634 633
4 433 434 635 634
4 434 435 636 635
4 435 436 637 636
4 436 437 638 637
4 437 438 639 638
4 438 439 640 639
4 439 440 641 640
4 440 441 642 641
4 441 442 643 642
4 442 443 644 643
4 443 444 645 644
4 444 445 646 645
4 445 446 647 646
4 446 447 648 647
4 447 448 649 648
4 448 449 650 649
4 449 450 651 650
4 450 451 652 651
4 451 452 653 652
4 452 453 654 653
4 453 454 655 654
4 454 455 656 655
4 455 456 657 656
4 456 457 658 657
4 457 458 659 658
4 458 459 660 659
4 459 460 661 660
4 460 461 662 661
4 461 462 663 662
4 462 463 664 663
4 463 464 665 664
4 464 465 666 665
4 465 466 667 666
4 466 467 668 667
4 467 468 669 668
4 468 469 670 669
4 469 470 671 670
4 470 471 672 671
4 471 472 673 672
4 472 473 674 673
4 473 474 675 674
4 474 475 676 675
4 475 476 677 676
4 476 477 678 677
4 477 478 679 678
4 478 479 680 679
4 479 480 681 680
4 480 481 682 681
4 481 482 683 682
4 482 483 684 683
4 483 484 685 684
4 484 485 686 685
4 485 486 687 686
4 486 487 688 687
4 487 488 689 688
4 488 489 690 689
4 489 490 691 690
4 490 491 692 691
4 491 492 693 692
4 492 493 694 693
4 493 494 695 694
4 494 495 696 695
4 495 496 697 696
4 496 497 698 697
4 497 498 699 698
4 498 499 700 699
4 499 500 701 700
4 500 501 702 701
4 501 502 703 702
4 502 503 704 703
4 503 504 705 704
4 504 505 706 705
4 505 506 707 706
4 506 507 708 707
4 507 508 709 708
4 508 509 710 709
4 509 510 711 710
4 510 511 712 711
4 511 512 713 712
4 512 513 714 713
4 513 514 715 714
4 514 515 716 715
4 515 516 717 716
4 516 517 718 717
4 517 518 719 718
4 518 519 720 719
4 519 520 721 720
4 520 521 722 721
4 521 522 723 722
4 522 523 724 723
4 523 524 725 724
4 524 525 726 725
4 525 526 727 726
4 526 527 728 727
4 527 528 729 728
4 528 529 730 729
4 529 530 731 730
4 530 531 732 731
4 531 532 733 732
4 532 533 734 733
4 533 534 735 734
4 534 535 736 735
4 535 536 737 736
4 536 537 738 737
4 537 538 739 738
4 538 539 740 739
4 539 540 741 740
4 540 541 742 741
4 541 542 743 742
4 542 543 744 743
4 543 544 745 744
4 544 545 746 745
4 545 546 747 746
4 546 547 748 747
4 547 548 749 748
4 548 549 750 749
4 549 550 751 750
4 550 551 752 751
4 551 552 753 752
4 552 553 754 753
4 553 554 755 754
4 554 555 756 755
4 555 556 757 756
4 556 557 758 757
4 557 558 759 758
4 558 559 760 759
4 559 560 761 760
4 560 561 762 761
4 561 562 763 762
4 562 563 764 763
4 563 564 765 764
4 564 565 766 765
4 565 566 767 766
4 566 567 768 767
4 567 568 769 768
4 568 569 770 769
4 569 570 771 770
4 570 571 772 771
4 571 572 773 772
4 572 573 774 773
4 573 574 775 774
4 574 575 776 775
4 575 576 777 776
4 576 577 778 777
4 577 578 779 778
4 578 579 780 779
4 579 580 781 780
4 580 581 782 781
4 581 582 783 782
4 582 583 784 783
4 583 584 785 784
4 584 585 786 785
4 585 586 787 786
4 586 587 788 787
4 587 588 789 788
4 588 589 790 789
4 589 590 791 790
4 590 591 792 791
4 591 592 793 792
4 592 593 794 793
4 593 594 795 794
4 594 595 796 795
4 595 596 797 796
4 596 597 798 797
4 597 598 799 798
4 598 599 800 799
4 599 600 801 800
4 600 601 802 801
4 601 602 803 802
4 603 604 805 804
4 604 605 806 805
4 605 606 807 806
4 606 607 808 807
4 607 608 809 808
4 608 609 810 809
4 609 610 811 810
4 610 611 812 811
4 611 612 813 812
4 612 613 814 813
4 613 614 815 814
4 614 615 816 815
4 615 616 817 816
4 616 617 818 817
4 617 618 819 818
4 618 619 820 819
4 619 620 821 820
4 620 621 822 821
4 621 622 823 822
4 622 623 824 823
4 623 624 825 824
4 624 625 826 825
4 625 626 827 826
4 626 627 828 827
4 627 628 829 828
4 628 629 830 829
4 629 630 831 830
4 630 631 832 831
4 631 632 833 832
4 632 633 834 833
4 633 634 835 834
4 634 635 836 835
4 635 636 837 836
4 636 637 838 837
4 637 638 839 838
4 638 639 840 839
4 639 640 841 840
4 640 641 842 841
4 641 642 843 842
4 642 643 844 843
4 643 644 845 844
4 644 645 846 845
4 645 646 847 846
4 646 647 848 847
4 647 648 849 848
4 648 649 850 849
4 649 650 851 850
4 650 651 852 851
4 651 652 853 852
4 652 653 854 853
4 653 654 855 854
4 654 655 856 855
4 655 656 857 856
4 656 657 858 857
4 657 658 859 858
4 658 659 860 859
4 659 660 861 860
4 660 661 862 861
4 661 662 863 862
4 662 663 864 863
4 663 664 865 864
4 664 665 866 865
4 665 666 867 866
4 666 667 868 867
4 667 668 869 868
4 668 669 870 869
4 669 670 871 870
4 670 671 872 871
4 671 672 873 872
4 672 673 874 873
4 673 674 875 874
4 674 675 876 875
4 675 676 877 876
4 676 677 878 877
4 677 678 879 878
4 678 679 880 879
4 679 680 881 880
4 680 681 882 881
4 681 682 883 882
4 682 683 884 883
4 683 684 885 884
4 684 685 886 885
4 685 686 887 886
4 686 687 888 887
4 687 688 889 888
4 688 689 890 889
4 689 690 891 890
4 690 691 892 891
4 691 692 893 892
4 692 693 894 893
4 693 694 895 894
4 694 695 896 895
4 695 696 897 896
4 696 697 898 897
4 697 698 899 898
4 698 699 900 899
4 699 700 901 900
4 700 701 902 901
4 701 702 903 902
4 702 703 904 903
4 703 704 905 904
4 704 705 906 905
4 705 706 907 906
4 706 707 908 907
4 707 708 909 908
4 708 709 910 909
4 709 710 911 910
4 710 711 912 911
4 711 712 913 912
4 712 713 914 913
4 713 714 915 914
4 714 715 916 915
4 715 716 917 916
4 716 717 918 917
4 717 718 919 918
4 718 719 920 919
4 719 720 921 920
4 720 721 922 921
4 721 722 923 922
4 722 723 924 923
4 723 724 925 924
4 724 725 926 925
4 725 726 927 926
4 726 727 928 927
4 727 728 929 928
4 728 729 930 929
4 729 730 931 930
4 730 731 932 931
4 731 732 933 932
4 732 733 934 933
4 733 734 935 934
4 734 735 936 935
4 735 736 937 936
4 736 737 938 937
4 737 738 939 938
4 738 739 940 939
4 739 740 941 940
4 740 741 942 941
4 741 742 943 942
4 742 743 944 943
4 743 744 945 944
4 744 745 946 945
4 745 746 947 946
4 746 747 948 947
4 747 748 949 948
4 748 749 950 949
4 749 750 951 950
4 750 751 952 951
4 751 752 953 952
4 752 753 954 953
4 753 754 955 954
4 754 755 956 955
4 755 756 957 956
4 756 757 958 957
4 757 758 959 958
4 758 759 960 959
4 759 760 961 960
4 760 761 962 961
4 761 762 963 962
4 762 763 964 963
4 763 764 965 964
4 764 765 966 965
4 765 766 967 966
4 766 767 968 967
4 767 768 969 968
4 768 769 970 969
4 769 770 971 970
4 770 771 972 971
4 771 772 973 972
4 772 773 974 973
4 773 774 975 974
4 774 775 976 975
4 775 776 977 976
4 776 777 978 977
4 777 778 979 978
4 778 779 980 979
4 779 780 981 980
4 780 781 982 981
4 781 782 983 982
4 782 783 984 983
4 783 784 985 984
4 784 785 986 985
4 785 786 987 986
4 786 787 988 987
4 787 788 989 988
4 788 789 990 989
4 789 790 991 990
4 790 791 992 991
4 791 792 993 992
4 792 793 994 993
4 793 794 995 994
4 794 795 996 995
4 795 796 997 996
4 796 797 998 997
4 797 798 999 998
4 798 799 1000 999
4 799 800 1001 1000
4 800 801 1002 1001
4 801 802 1003 1002
4 802 803 1004 1003
4 804 805 1006 1005
4 805 806 1007 1006
4 806 807 1008 1007
4 807 808 1009 1008
4 808 809 1010 1009
4 809 810 1011 1010
4 810 811 1012 1011
4 811 812 1013 1012
4 812 813 1014 1013
4 813 814 1015 1014
4 814 815 1016 1015
4 815 816 1017 1016
4 816 817 1018 1017
4 817 818 1019 1018
4 818 819 1020 1019
4 819 820 1021 1020
4 820 821 1022 1021
4 821 822 1023 1022
4 822 823 1024 1023
4 823 824 1025 1024
4 824 825 1026 1025
4 825 826 1027 1026
4 826 827 1028 1027
4 827 828 1029 1028
4 828 829 1030 1029
4 829 830 1031 1030
4 830 831 1032 1031
4 831 832 1033 1032
4 832 833 1034 1033
4 833 834 1035 1034
4 834 835 1036 1035
4 835 836 1037 1036
4 836 837 1038 1037
4 837 838 1039 1038
4 838 839 1040 1039
4 839 840 1041 1040
4 840 841 1042 1041
4 841 842 1043 1042
4 842 843 1044 1043
4 843 844 1045 1044
4 844 845 1046 1045
4 845 846 1047 1046
4 846 847 1048 1047
4 847 848 1049 1048
4 848 849 1050 1049
4 849 850 1051 1050
4 850 851 1052 1051
4 851 852 1053 1052
4 852 853 1054 1053
4 853 854 1055 1054
4 854 855 1056 1055
4 855 856 1057 1056
4 856 857 1058 1057
4 857 858 1059 1058
4 858 859 1060 1059
4 859 860 1061 1060
4 860 861 1062 1061
4 861 862 1063 1062
4 862 863 1064 1063
4 863 864 1065 1064
4 864 865 1066 1065
4 865 866 1067 1066
4 866 867 1068 1067
4 867 868 1069 1068
4 868 869 1070 1069
4 869 870 1071 1070
4 870 871 1072 1071
4 871 872 1073 1072
4 872 873 1074 1073
4 873 874 1075 1074
4 874 875 1076 1075
4 875 876 1077 1076
4 876 877 1078 1077
4 877 878 1079 1078
4 878 879 1080 1079
4 879 880 1081 1080
4 880 881 1082 1081
4 881 882 1083 1082
4 882 883 1084 1083
4 883 884 1085 1084
4 884 885 1086 1085
4 885 886 1087 1086
4 886 887 1088 1087
4 887 888 1089 1088
4 888 889 1090 1089
4 889 890 1091 1090
4 890 891 1092 1091
4 891 892 1093 1092
4 892 893 1094 1093
4 893 894 1095 1094
4 894 895 1096 1095
4 895 896 1097 1096
4 896 897 1098 1097
4 897 898 1099 1098
4 898 899 1100 1099
4 899 900 1101 1100
4 900 901 1102 1101
4 901 902 1103 1102
4 902 903 1104 1103
4 903 904 1105 1104
4 904 905 1106 1105
4 905 906 1107 1106
4 906 907 1108 1107
4 907 908 1109 1108
4 908 909 1110 1109
4 909 910 1111 1110
4 910 911 1112 1111
4 911 912 1113 1112
4 912 913 1114 1113
4 913 914 1115 1114
4 914 915 1116 1115
4 915 916 1117 1116
4 916 917 1118 1117
4 917 918 1119 1118
4 918 919 1120 1119
4 919 920 1121 1120
4 920 921 1122 1121
4 921 922 1123 1122
4 922 923 1124 1123
4 923 924 1125 1124
4 924 925 1126 1125
4 925 926 1127 1126
4 926 927 1128 1127
4 927 928 1129 1128
4 928 929 1130 1129
4 929 930 1131 1130
4 930 931 1132 1131
4 931 932 1133 1132
4 932 933 1134 1133
4 933 934 1135 1134
4 934 935 1136 1135
4 935 936 1137 1136
4 936 937 1138 1137
4 937 938 1139 1138
4 938 939 1140 1139
4 939 940 1141 1140
4 940 941 1142 1141
4 941 942 1143 1142
4 942 943 1144 1143
4 943 944 1145 1144
4 944 945 1146 1145
4 945 946 1147 1146
4 946 947 1148 1147
4 947 948 1149 1148
4 948 949 1150 1149
4 949 950 1151 1150
4 950 951 1152 1151
4 951 952 1153 1152
4 952 953 1154 1153
4 953 954 1155 1154
4 954 955 1156 1155
4 955 956 1157 1156
4 956 957 1158 1157
4 957 958 1159 1158
4 958 959 1160 1159
4 959 960 1161 1160
4 960 961 1162 1161
4 961 962 1163 1162
4 962 963 1164 1163
4 963 964 1165 1164
4 964 965 1166 1165
4 965 966 1167 1166
4 966 967 1168 1167
4 967 968 1169 1168
4 968 969 1170 1169
4 969 970 1171 1170
4 970 971 1172 1171
4 971 972 1173 1172
4 972 973 1174 1173
4 973 974 1175 1174
4 974 975 1176 1175
4 975 976 1177 1176
4 976 977 1178 1177
4 977 978 1179 1178
4 978 979 1180 1179
4 979 980 1181 1180
4 980 981 1182 1181
4 981 982 1183 1182
4 982 983 1184 1183
4 983 984 1185 1184
4 984 985 1186 1185
4 985 986 1187 1186
4 986 987 1188 1187
4 987 988 1189 1188
4 988 989 1190 1189
4 989 990 1191 1190
4 990 991 1192 1191
4 991 992 1193 1192
4 992 993 1194 1193
4 993 994 1195 1194
4 994 995 1196 1195
4 995 996 1197 1196
4 996 997 1198 1197
4 997 998 1199 1198
4 998 999 1200 1199
4 999 1000 1201 1200
4 1000 1001 1202 1201
4 1001 1002 1203 1202
4 1002 1003 1204 1203
4 1003 1004 1205 1204
4 1005 1006 1207 1206
4 1006 1007 1208 1207
4 1007 1008 1209 1208
4 1008 1009 1210 1209
4 1009 1010 1211 1210
4 1010 1011 1212 1211
4 1011 1012 1213 1212
4 1012 1013 1214 1213
4 1013 1014 1215 1214
4 1014 1015 1216 1215
4 1015 1016 1217 1216
4 1016 1017 1218 1217
4 1017 1018 1219 1218
4 1018 1019 1220 1219
4 1019 1020 1221 1220
4 1020 1021 1222 1221
4 1021 1022 1223 1222
4 1022 1023 1224 1223
4 1023 1024 1225 1224
4 1024 1025 1226 1225
4 1025 1026 1227 1226
4 1026 1027 1228 1227
4 1027 1028 1229 1228
4 1028 1029 1230 1229
4 1029 1030 1231 1230
4 1030 1031 1232 1231
4 1031 1032 1233 1232
4 1032 1033 1234 1233
4 1033 1034 1235 1234
4 1034 1035 1236 1235
4 1035 1036 1237 1236
4 1036 1037 1238 1237
4 1037 1038 1239 1238
4 1038 1039 1240 1239
4 1039 1040 1241 1240
4 1040 1041 1242 1241
4 1041 1042 1243 1242
4 1042 1043 1244 1243
4 1043 1044 1245 1244
4 1044 1045 1246 1245
4 1045 1046 1247 1246
4 1046 1047 1248 1247
4 1047 1048 1249 1248
4 1048 1049 1250 1249
4 1049 1050 1251 1250
4 1050 1051 1252 1251
4 1051 1052 1253 1252
4 1052 1053 1254 1253
4 1053 1054 1255 1254
4 1054 1055 1256 1255
4 1055 1056 1257 1256
4 1056 1057 1258 1257
4 1057 1058 1259 1258
4 1058 1059 1260 1259
4 1059 1060 1261 1260
4 1060 1061 1262 1261
4 1061 1062 1263 1262
4 1062 1063 1264 1263
4 1063 1064 1265 1264
4 1064 1065 1266 1265
4 1065 1066 1267 1266
4 1066 1067 1268 1267
4 1067 1068 1269 1268
4 1068 1069 1270 1269
4 1069 1070 1271 1270
4 1070 1071 1272 1271
4 1071 1072 1273 1272
4 1072 1073 1274 1273
4 1073 1074 1275 1274
4 1074 1075 1276 1275
4 1075 1076 1277 1276
4 1076 1077 1278 1277
4 1077 1078 1279 1278
4 1078 1079 1280 1279
4 1079 1080 1281 1280
4 1080 1081 1282 1281
4 1081 1082 1283 1282
4 1082 1083 1284 1283
4 1083 1084 1285 1284
4 1084 1085 1286 1285
4 1085 1086 1287 1286
4 1086 1087 1288 1287
4 1087 1088 1289 1288
4 1088 1089 1290 1289
4 1089 1090 1291 1290
4 1090 1091 1292 1291
4 1091 1092 1293 1292
4 1092 1093 1294 1293
4 1093 1094 1295 1294
4 1094 1095 1296 1295
4 1095 1096 1297 1296
4 1096 1097 1298 1297
4 1097 1098 1299 1298
4 1098 1099 1300 1299
4 1099 1100 1301 1300
4 1100 1101 1302 1301
4 1101 1102 1303 1302
4 1102 1103 1304 1303
4 1103 1104 1305 1304
4 1104 1105 1306 1305
4 1105 1106 1307 1306
4 1106 1107 1308 1307
4 1107 1108 1309 1308
4 1108 1109 1310 1309
4 1109 1110 1311 1310
4 1110 1111 1312 1311
4 1111 1112 1313 1312
4 1112 1113 1314 1313
4 1113 1114 1315 1314
4 1114 1115 1316 1315
4 1115 1116 1317 1316
4 1116 1117 1318 1317
4 1117 1118 1319 1318
4 1118 1119 1320 1319
4 1119 1120 1321 1320
4 1120 1121 1322 1321
4 1121 1122 1323 1322
4 1122 1123 1324 1323
4 1123 1124 1325 1324
4 1124 1125 1326 1325
4 1125 1126 1327 1326
4 1126 1127 1328 1327
4 1127 1128 1329 1328
4 1128 1129 1330 1329
4 1129 1130 1331 1330
4 1130 1131 1332 1331
4 1131 1132 1333 1332
4 1132 1133 1334 1333
4 1133 1134 1335 1334
4 1134 1135 1336 1335
4 1135 1136 1337 1336
4 1136 1137 1338 1337
4 1137 1138 1339 1338
4 1138 1139 1340 1339
4 1139 1140 1341 1340
4 1140 1141 1342 1341
4 1141 1142 1343 1342
4 1142 1143 1344 1343
4 1143 1144 1345 1344
4 1144 1145 1346 1345
4 1145 1146 1347 1346
4 1146 1147 1348 1347
4 1147 1148 1349 1348
4 1148 1149 1350 1349
4 1149 1150 1351 1350
4 1150 1151 1352 1351
4 1151 1152 1353 1352
4 1152 1153 1354 1353
4 1153 1154 1355 1354
4 1154 1155 1356 1355
4 1155 1156 1357 1356
4 1156 1157 1358 1357
4 1157 1158 1359 1358
4 1158 1159 1360 1359
4 1159 1160 1361 1360
4 1160 1161 1362 1361
4 1161 1162 1363 1362
4 1162 1163 1364 1363
4 1163 1164 1365 1364
4 1164 1165 1366 1365
4 1165 1166 1367 1366
4 1166 1167 1368 1367
4 1167 1168 1369 1368
4 1168 1169 1370 1369
4 1169 1170 1371 1370
4 1170 1171 1372 1371
4 1171 1172 1373 1372
4 1172 1173 1374 1373
4 1173 1174 1375 1374
4 1174 1175 1376 1375
4 1175 1176 1377 1376
4 1176 1177 1378 1377
4 1177 1178 1379 1378
4 1178 1179 1380 1379
4 1179 1180 1381 1380
4 1180 1181 1382 1381
4 1181 1182 1383 1382
4 1182 1183 1384 1383
4 1183 1184 1385 1384
4 1184 1185 1386 1385
4 1185 1186 1387 1386
4 1186 1187 1388 1387
4 1187 1188 1389 1388
4 1188 1189 1390 1389
4 1189 1190 1391 1390
4 1190 1191 1392 1391
4 1191 1192 1393 1392
4 1192 1193 1394 1393
4 1193 1194 1395 1394
4 1194 1195 1396 1395
4 1195 1196 1397 1396
4 1196 1197 1398 1397
4 1197 1198 1399 1398
4 1198 1199 1400 1399
4 1199 1200 1401 1400
4 1200 1201 1402 1401
4 1201 1202 1403 1402
4 1202 1203 1404 1403
4 1203 1204 1405 1404
4 1204 1205 1406 1405
4 1206 1207 1408 1407
4 1207 1208 1409 1408
4 1208 1209 1410 1409
4 1209 1210 1411 1410
4 1210 1211 1412 1411
4 1211 1212 1413 1412
4 1212 1213 1414 1413
4 1213 1214 1415 1414
4 1214 1215 1416 1415
4 1215 1216 1417 1416
4 1216 1217 1418 1417
4 1217 1218 1419 1418
4 1218 1219 1420 1419
4 1219 1220 1421 1420
4 1220 1221 1422 1421
4 1221 1222 1423 1422
4 1222 1223 1424 1423
4 1223 1224 1425 1424
4 1224 1225 1426 1425
4 1225 1226 1427 1426
4 1226 1227 1428 1427
4 1227 1228 1429 1428
4 1228 1229 1430 1429
4 1229 1230 1431 1430
4 1230 1231 1432 1431
4 1231 1232 1433 1432
4 1232 1233 1434 1433
4 1233 1234 1435 1434
4 1234 1235 1436 1435
4 1235 1236 1437 1436
4 1236 1237 1438 1437
4 1237 1238 1439 1438
4 1238 1239 1440 1439
4 1239 1240 1441 1440
4 1240 1241 1442 1441
4 1241 1242 1443 1442
4 1242 1243 1444 1443
4 1243 1244 1445 1444
4 1244 1245 1446 1445
4 1245 1246 1447 1446
4 1246 1247 1448 1447
4 1247 1248 1449 1448
4 1248 1249 1450 1449
4 1249 1250 1451 1450
4 1250 1251 1452 1451
4 1251 1252 1453 1452
4 1252 1253 1454 1453
4 1253 1254 1455 1454
4 1254 1255 1456 1455
4 1255 1256 1457 1456
4 1256 1257 1458 1457
4 1257 1258 1459 1458
4 1258 1259 1460 1459
4 1259 1260 1461 1460
4 1260 1261 1462 1461
4 1261 1262 1463 1462
4 1262 1263 1464 1463
4 1263 1264 1465 1464
4 1264 1265 1466 1465
4 1265 1266 1467 1466
4 1266 1267 1468 1467
4 1267 1268 1469 1468
4 1268 1269 1470 1469
4 1269 1270 1471 1470
4 1270 1271 1472 1471
4 1271 1272 1473 1472
4 1272 1273 1474 1473
4 1273 1274 1475 1474
4 1274 1275 1476 1475
4 1275 1276 1477 1476
4 1276 1277 1478 1477
4 1277 1278 1479 1478
4 1278 1279 1480 1479
4 1279 1280 1481 1480
4 1280 1281 1482 1481
4 1281 1282 1483 1482
4 1282 1283 1484 1483
4 1283 1284 1485 1484
4 1284 1285 1486 1485
4 1285 1286 1487 1486
4 1286 1287 1488 1487
4 1287 1288 1489 1488
4 1288 1289 1490 1489
4 1289 1290 1491 1490
4 1290 1291 1492 1491
4 1291 1292 1493 1492
4 1292 1293 1494 1493
4 1293 1294 1495 1494
4 1294 1295 1496 1495
4 1295 1296 1497 1496
4 1296 1297 1498 1497
4 1297 1298 1499 1498
4 1298 1299 1500 1499
4 1299 1300 1501 1500
4 1300 1301 1502 1501
4 1301 1302 1503 1502
4 1302 1303 1504 1503
4 1303 1304 1505 1504
4 1304 1305 1506 1505
4 1305 1306 1507 1506
4 1306 1307 1508 1507
4 1307 1308 1509 1508
4 1308 1309 1510 1509
4 1309 1310 1511 1510
4 1310 1311 1512 1511
4 1311 1312 1513 1512
4 1312 1313 1514 1513
4 1313 1314 1515 1514
4 1314 1315 1516 1515
4 1315 1316 1517 1516
4 1316 1317 1518 1517
4 1317 1318 1519 1518
4 1318 1319 1520 1519
4 1319 1320 1521 1520
4 1320 1321 1522 1521
4 1321 1322 1523 1522
4 1322 1323 1524 1523
4 1323 1324 1525 1524
4 1324 1325 1526 1525
4 1325 1326 1527 1526
4 1326 1327 1528 1527
4 1327 1328 1529 1528
4 1328 1329 1530 1529
4 1329 1330 1531 1530
4 1330 1331 1532 1531
4 1331 1332 1533 1532
4 1332 1333 1534 1533
4 1333 1334 1535 1534
4 1334 1335 1536 1535
4 1335 1336 1537 1536
4 1336 1337 1538 1537
4 1337 1338 1539 1538
4 1338 1339 1540 1539
4 1339 1340 1541 1540
4 1340 1341 1542 1541
4 1341 1342 1543 1542
4 1342 1343 1544 1543
4 1343 1344 1545 1544
4 1344 1345 1546 1545
4 1345 1346 1547 1546
4 1346 1347 1548 1547
4 1347 1348 1549 1548
4 1348 1349 1550 1549
4 1349 1350 1551 1550
4 1350 1351 1552 1551
4 1351 1352 1553 1552
4 1352 1353 1554 1553
4 1353 1354 1555 1554
4 1354 1355 1556 1555
4 1355 1356 1557 1556
4 1356 1357 1558 1557
4 1357 1358 1559 1558
4 1358 1359 1560 1559
4 1359 1360 1561 1560
4 1360 1361 1562 1561
4 1361 1362 1563 1562
4 1362 1363 1564 1563
4 1363 1364 1565 1564
4 1364 1365 1566 1565
4 1365 1366 1567 1566
4 1366 1367 1568 1567
4 1367 1368 1569 1568
4 1368 1369 1570 1569
4 1369 1370 1571 1570
4 1370 1371 1572 1571
4 1371 1372 1573 1572
4 1372 1373 1574 1573
4 1373 1374 1575 1574
4 1374 1375 1576 1575
4 1375 1376 1577 1576
4 1376 1377 1578 1577
4 1377 1378 1579 1578
4 1378 1379 1580 1579
4 1379 1380 1581 1580
4 1380 1381 1582 1581
4 1381 1382 1583 1582
4 1382 1383 1584 1583
4 1383 1384 1585 1584
4 1384 1385 1586 1585
4 1385 1386 1587 1586
4 1386 1387 1588 1587
4 1387 1388 1589 1588
4 1388 1389 1590 1589
4 1389 1390 1591 1590
4 1390 1391 1592 1591
4 1391 1392 1593 1592
4 1392 1393 1594 1593
4 1393 1394 1595 1594
4 1394 1395 1596 1595
4 1395 1396 1597 1596
4 1396 1397 1598 1597
4 1397 1398 1599 1598
4 1398 1399 1600 1599
4 1399 1400 1601 1600
4 1400 1401 1602 1601
4 1401 1402 1603 1602
4 1402 1403 1604 1603
4 1403 1404 1605 1604
4 1404 1405 1606 1605
4 1405 1406 1607 1606
4 1407 1408 1609 1608
4 1408 1409 1610 1609
4 1409 1410 1611 1610
4 1410 1411 1612 1611
4 1411 1412 1613 1612
4 1412 1413 1614 1613
4 1413 1414 1615 1614
4 1414 1415 1616 1615
4 1415 1416 1617 1616
4 1416 1417 1618 1617
4 1417 1418 1619 1618
4 1418 1419 1620 1619
4 1419 1420 1621 1620
4 1420 1421 1622 1621
4 1421 1422 1623 1622
4 1422 1423 1624 1623
4 1423 1424 1625 1624
4 1424 1425 1626 1625
4 1425 1426 1627 1626
4 1426 1427 1628 1627
4 1427 1428 1629 1628
4 1428 1429 1630 1629
4 1429 1430 1631 1630
4 1430 1431 1632 1631
4 1431 1432 1633 1632
4 1432 1433 1634 1633
4 1433 1434 1635 1634
4 1434 1435 1636 1635
4 1435 1436 1637 1636
4 1436 1437 1638 1637
4 1437 1438 1639 1638
4 1438 1439 1640 1639
4 1439 1440 1641 1640
4 1440 1441 1642 1641
4 1441 1442 1643 1642
4 1442 1443 1644 1643
4 1443 1444 1645 1644
4 1444 1445 1646 1645
4 1445 1446 1647 1646
4 1446 1447 1648 1647
4 1447 1448 1649 1648
4 1448 1449 1650 1649
4 1449 1450 1651 1650
4 1450 1451 1652 1651
4 1451 1452 1653 1652
4 1452 1453 1654 1653
4 1453 1454 1655 1654
4 1454 1455 1656 1655
4 1455 1456 1657 1656
4 1456 1457 1658 1657
4 1457 1458 1659 1658
4 1458 1459 1660 1659
4 1459 1460 1661 1660
4 1460 1461 1662 1661
4 1461 1462 1663 1662
4 1462 1463 1664 1663
4 1463 1464 1665 1664
4 1464 1465 1666 1665
4 1465 1466 1667 1666
4 1466 1467 1668 1667
4 1467 1468 1669 1668
4 1468 1469 1670 1669
4 1469 1470 1671 1670
4 1470 1471 1672 1671
4 1471 1472 1673 1672
4 1472 1473 1674 1673
4 1473 1474 1675 1674
4 1474 1475 1676 1675
4 1475 1476 1677 1676
4 1476 1477 1678 1677
4 1477 1478 1679 1678
4 1478 1479 1680 1679
4 1479 1480 1681 1680
4 1480 1481 1682 1681
4 1481 1482 1683 1682
4 1482 1483 1684 1683
4 1483 1484 1685 1684
4 1484 1485 1686 1685
4 1485 1486 1687 1686
4 1486 1487 1688 1687
4 1487 1488 1689 1688
4 1488 1489 1690 1689
4 1489 1490 1691 1690
4 1490 1491 1692 1691
4 1491 1492 1693 1692
4 1492 1493 1694 1693
4 1493 1494 1695 1694
4 1494 1495 1696 1695
4 1495 1496 1697 1696
4 1496 1497 1698 1697
4 1497 1498 1699 1698
4 1498 1499 1700 1699
4 1499 1500 1701 1700
4 1500 1501 1702 1701
4 1501 1502 1703 1702
4 1502 1503 1704 1703
4 1503 1504 1705 1704
4 1504 1505 1706 1705
4 1505 1506 1707 1706
4 1506 1507 1708 1707
4 1507 1508 1709 1708
4 1508 1509 1710 1709
4 1509 1510 1711 1710
4 1510 1511 1712 1711
4 1511 1512 1713 1712
4 1512 1513 1714 1713
4 1513 1514 1715 1714
4 1514 1515 1716 1715
4 1515 1516 1717 1716
4 1516 1517 1718 1717
4 1517 1518 1719 1718
4 1518 1519 1720 1719
4 1519 1520 1721 1720
4 1520 1521 1722 1721
4 1521 1522 1723 1722
4 1522 1523 1724 1723
4 1523 1524 1725 1724
4 1524 1525 1726 1725
4 1525 1526 1727 1726
4 1526 1527 1728 1727
4 1527 1528 1729 1728
4 1528 1529 1730 1729
4 1529 1530 1731 1730
4 1530 1531 1732 1731
4 1531 1532 1733 1732
4 1532 1533 1734 1733
4 1533 1534 1735 1734
4 1534 1535 1736 1735
4 1535 1536 1737 1736
4 1536 1537 1738 1737
4 1537 1538 1739 1738
4 1538 1539 1740 1739
4 1539 1540 1741 1740
4 1540 1541 1742 1741
4 1541 1542 1743 1742
4 1542 1543 1744 1743
4 1543 1544 1745 1744
4 1544 1545 1746 1745
4 1545 1546 1747 1746
4 1546 1547 1748 1747
4 1547 1548 1749 1748
4 1548 1549 1750 1749
4 1549 1550 1751 1750
4 1550 1551 1752 1751
4 1551 1552 1753 1752
4 1552 1553 1754 1753
4 1553 1554 1755 1754
4 1554 1555 1756 1755
4 1555 1556 1757 1756
4 1556 1557 1758 1757
4 1557 1558 1759 1758
4 1558 1559 1760 1759
4 1559 1560 1761 1760
4 1560 1561 1762 1761
4 1561 1562 1763 1762
4 1562 1563 1764 1763
4 1563 1564 1765 1764
4 1564 1565 1766 1765
4 1565 1566 1767 1766
4 1566 1567 1768 1767
4 1567 1568 1769 1768
4 1568 1569 1770 1769
4 1569 1570 1771 1770
4 1570 1571 1772 1771
4 1571 1572 1773 1772
4 1572 1573 1774 1773
4 1573 1574 1775 1774
4 1574 1575 1776 1775
4 1575 1576 1777 1776
4 1576 1577 1778 1777
4 1577 1578 1779 1778
4 1578 1579 1780 1779
4 1579 1580 1781 1780
4 1580 1581 1782 1781
4 1581 1582 1783 1782
4 1582 1583 1784 1783
4 1583 1584 1785 1784
4 1584 1585 1786 1785
4 1585 1586 1787 1786
4 1586 1587 1788 1787
4 1587 1588 1789 1788
4 1588 1589 1790 1789
4 1589 1590 1791 1790
4 1590 1591 1792 1791
4 1591 1592 1793 1792
4 1592 1593 1794 1793
4 1593 1594 1795 1794
4 1594 1595 1796 1795
4 1595 1596 1797 1796
4 1596 1597 1798 1797
4 1597 1598 1799 1798
4 1598 1599 1800 1799
4 1599 1600 1801 1800
4 1600 1601 1802 1801
4 1601 1602 1803 1802
4 1602 1603 1804 1803
4 1603 1604 1805 1804
4 1604 1605 1806 1805
4 1605 1606 1807 1806
4 1606 1607 1808 1807
4 1608 1609 1810 1809
4 1609 1610 1811 1810
4 1610 1611 1812 1811
4 1611 1612 1813 1812
4 1612 1613 1814 1813
4 1613 1614 1815 1814
4 1614 1615 1816 1815
4 1615 1616 1817 1816
4 1616 1617 1818 1817
4 1617 1618 1819 1818
4 1618 1619 1820 1819
4 1619 1620 1821 1820
4 1620 1621 1822 1821
4 1621 1622 1823 1822
4 1622 1623 1824 1823
4 1623 1624 1825 1824
4 1624 1625 1826 1825
4 1625 1626 1827 1826
4 1626 1627 1828 1827
4 1627 1628 1829 1828
4 1628 1629 1830 1829
4 1629 1630 1831 1830
4 1630 1631 1832 1831
4 1631 1632 1833 1832
4 1632 1633 1834 1833
4 1633 1634 1835 1834
4 1634 1635 1836 1835
4 1635 1636 1837 1836
4 1636 1637 1838 1837
4 1637 1638 1839 1838
4 1638 1639 1840 1839
4 1639 1640 1841 1840
4 1640 1641 1842 1841
4 1641 1642 1843 1842
4 1642 1643 1844 1843
4 1643 1644 1845 1844
4 1644 1645 1846 1845
4 1645 1646 1847 1846
4 1646 1647 1848 1847
4 1647 1648 1849 1848
4 1648 1649 1850 1849
4 1649 1650 1851 1850
4 1650 1651 1852 1851
4 1651 1652 1853 1852
4 1652 1653 1854 1853
4 1653 1654 1855 1854
4 1654 1655 1856 1855
4 1655 1656 1857 1856
4 1656 1657 1858 1857
4 1657 1658 1859 1858
4 1658 1659 1860 1859
4 1659 1660 1861 1860
4 1660 1661 1862 1861
4 1661 1662 1863 1862
4 1662 1663 1864 1863
4 1663 1664 1865 1864
4 1664 1665 1866 1865
4 1665 1666 1867 1866
4 1666 1667 1868 1867
4 1667 1668 1869 1868
4 1668 1669 1870 1869
4 1669 1670 1871 1870
4 1670 1671 1872 1871
4 1671 1672 1873 1872
4 1672 1673 1874 1873
4 1673 1674 1875 1874
4 1674 1675 1876 1875
4 1675 1676 1877 1876
4 1676 1677 1878 1877
4 1677 1678 1879 1878
4 1678 1679 1880 1879
4 1679 1680 1881 1880
4 1680 1681 1882 1881
4 1681 1682 1883 1882
4 1682 1683 1884 1883
4 1683 1684 1885 1884
4 1684 1685 1886 1885
4 1685 1686 1887 1886
4 1686 1687 1888 1887
4 1687 1688 1889 1888
4 1688 1689 1890 1889
4 1689 1690 1891 1890
4 1690 1691 1892 1891
4 1691 1692 1893 1892
4 1692 1693 1894 1893
4 1693 1694 1895 1894
4 1694 1695 1896 1895
4 1695 1696 1897 1896
4 1696 1697 1898 1897
4 1697 1698 1899 1898
4 1698 1699 1900 1899
4 1699 1700 1901 1900
4 1700 1701 1902 1901
4 1701 1702 1903 1902
4 1702 1703 1904 1903
4 1703 1704 1905 1904
4 1704 1705 1906 1905
4 1705 1706 1907 1906
4 1706 1707 1908 1907
4 1707 1708 1909 1908
4 1708 1709 1910 1909
4 1709 1710 1911 1910
4 1710 1711 1912 1911
4 1711 1712 1913 1912
4 1712 1713 1914 1913
4 1713 1714 1915 1914
4 1714 1715 1916 1915
4 1715 1716 1917 1916
4 1716 1717 1918 1917
4 1717 1718 1919 1918
4 1718 1719 1920 1919
4 1719 1720 1921 1920
4 1720 1721 1922 1921
4 1721 1722 1923 1922
4 1722 1723 1924 1923
4 1723 1724 1925 1924
4 1724 1725 1926 1925
4 1725 1726 1927 1926
4 1726 1727 1928 1927
4 1727 1728 1929 1928
4 1728 1729 1930 1929
4 1729 1730 1931 1930
4 1730 1731 1932 1931
4 1731 1732 1933 1932
4 1732 1733 1934 1933
4 1733 1734 1935 1934
4 1734 1735 1936 1935
4 1735 1736 1937 1936
4 1736 1737 1938 1937
4 1737 1738 1939 1938
4 1738 1739 1940 1939
4 1739 1740 1941 1940
4 1740 1741 1942 1941
4 1741 1742 1943 1942
4 1742 1743 1944 1943
4 1743 1744 1945 1944
4 1744 1745 1946 1945
4 1745 1746 1947 1946
4 1746 1747 1948 1947
4 1747 1748 1949 1948
4 1748 1749 1950 1949
4 1749 1750 1951 1950
4 1750 1751 1952 1951
4 1751 1752 1953 1952
4 1752 1753 1954 1953
4 1753 1754 1955 1954
4 1754 1755 1956 1955
4 1755 1756 1957 1956
4 1756 1757 1958 1957
4 1757 1758 1959 1958
4 1758 1759 1960 1959
4 1759 1760 1961 1960
4 1760 1761 1962 1961
4 1761 1762 1963 1962
4 1762 1763 1964 1963
4 1763 1764 1965 1964
4 1764 1765 1966 1965
4 1765 1766 1967 1966
4 1766 1767 1968 1967
4 1767 1768 1969 1968
4 1768 1769 1970 1969
4 1769 1770 1971 1970
4 1770 1771 1972 1971
4 1771 1772 1973 1972
4 1772 1773 1974 1973
4 1773 1774 1975 1974
4 1774 1775 1976 1975
4 1775 1776 1977 1976
4 1776 1777 1978 1977
4 1777 1778 1979 1978
4 1778 1779 1980 1979
4 1779 1780 1981 1980
4 1780 1781 1982 1981
4 1781 1782 1983 1982
4 1782 1783 1984 1983
4 1783 1784 1985 1984
4 1784 1785 1986 1985
4 1785 1786 1987 1986
4 1786 1787 1988 1987
4 1787 1788 1989 1988
4 1788 1789 1990 1989
4 1789 1790 1991 1990
4 1790 1791 1992 1991
4 1791 1792 1993 1992
4 1792 1793 1994 1993
4 1793 1794 1995 1994
4 1794 1795 1996 1995
4 1795 1796 1997 1996
4 1796 1797 1998 1997
4 1797 1798 1999 1998
4 1798 1799 2000 1999
4 1799 1800 2001 2000
4 1800 1801 2002 2001
4 1801 1802 2003 2002
4 1802 1803 2004 2003
4 1803 1804 2005 2004
4 1804 1805 2006 2005
4 1805 1806 2007 2006
4 1806 1807 2008 2007
4 1807 1808 2009 2008
4 1809 1810 2011 2010
4 1810 1811 2012 2011
4 1811 1812 2013 2012
4 1812 1813 2014 2013
4 1813 1814 2015 2014
4 1814 1815 2016 2015
4 1815 1816 2017 2016
4 1816 1817 2018 2017
4 1817 1818 2019 2018
4 1818 1819 2020 2019
4 1819 1820 2021 2020
4 1820 1821 2022 2021
4 1821 1822 2023 2022
4 1822 1823 2024 2023
4 1823 1824 2025 2024
4 1824 1825 2026 2025
4 1825 1826 2027 2026
4 1826 1827 2028 2027
4 1827 1828 2029 2028
4 1828 1829 2030 2029
4 1829 1830 2031 2030
4 1830 1831 2032 2031
4 1831 1832 2033 2032
4 1832 1833 2034 2033
4 1833 1834 2035 2034
4 1834 1835 2036 2035
4 1835 1836 2037 2036
4 1836 1837 2038 2037
4 1837 1838 2039 2038
4 1838 1839 2040 2039
4 1839 1840 2041 2040
4 1840 1841 2042 2041
4 1841 1842 2043 2042
4 1842 1843 2044 2043
4 1843 1844 2045 2044
4 1844 1845 2046 2045
4 1845 1846 2047 2046
4 1846 1847 2048 2047
4 1847 1848 2049 2048
4 1848 1849 2050 2049
4 1849 1850 2051 2050
4 1850 1851 2052 2051
4 1851 1852 2053 2052
4 1852 1853 2054 2053
4 1853 1854 2055 2054
4 1854 1855 2056 2055
4 1855 1856 2057 2056
4 1856 1857 2058 2057
4 1857 1858 2059 2058
4 1858 1859 2060 2059
4 1859 1860 2061 2060
4 1860 1861 2062 2061
4 1861 1862 2063 2062
4 1862 1863 2064 2063
4 1863 1864 2065 2064
4 1864 1865 2066 2065
4 1865 1866 2067 2066
4 1866 1867 2068 2067
4 1867 1868 2069 2068
4 1868 1869 2070 2069
4 1869 1870 2071 2070
4 1870 1871 2072 2071
4 1871 1872 2073 2072
4 1872 1873 2074 2073
4 1873 1874 2075 2074
4 1874 1875 2076 2075
4 1875 1876 2077 2076
4 1876 1877 2078 2077
4 1877 1878 2079 2078
4 1878 1879 2080 2079
4 1879 1880 2081 2080
4 1880 1881 2082 2081
4 1881 1882 2083 2082
4 1882 1883 2084 2083
4 1883 1884 2085 2084
4 1884 1885 2086 2085
4 1885 1886 2087 2086
4 1886 1887 2088 2087
4 1887 1888 2089 2088
4 1888 1889 2090 2089
4 1889 1890 2091 2090
4 1890 1891 2092 2091
4 1891 1892 2093 2092
4 1892 1893 2094 2093
4 1893 1894 2095 2094
4 1894 1895 2096 2095
4 1895 1896 2097 2096
4 1896 1897 2098 2097
4 1897 1898 2099 2098
4 1898 1899 2100 2099
4 1899 1900 2101 2100
4 1900 1901 2102 2101
4 1901 1902 2103 2102
4 1902 1903 2104 2103
4 1903 1904 2105 2104
4 1904 1905 2106 2105
4 1905 1906 2107 2106
4 1906 1907 2108 2107
4 1907 1908 2109 2108
4 1908 1909 2110 2109
4 1909 1910 2111 2110
4 1910 1911 2112 2111
4 1911 1912 2113 2112
4 1912 1913 2114 2113
4 1913 1914 2115 2114
4 1914 1915 2116 2115
4 1915 1916 2117 2116
4 1916 1917 2118 2117
4 1917 1918 2119 2118
4 1918 1919 2120 2119
4 1919 1920 2121 2120
4 1920 1921 2122 2121
4 1921 1922 2123 2122
4 1922 1923 2124 2123
4 1923 1924 2125 2124
4 1924 1925 2126 2125
4 1925 1926 2127 2126
4 1926 1927 2128 2127
4 1927 1928 2129 2128
4 1928 1929 2130 2129
4 1929 1930 2131 2130
4 1930 1931 2132 2131
4 1931 1932 2133 2132
4 1932 1933 2134 2133
4 1933 1934 2135 2134
4 1934 1935 2136 2135
4 1935 1936 2137 2136
4 1936 1937 2138 2137
4 1937 1938 2139 2138
4 1938 1939 2140 2139
4 1939 1940 2141 2140
4 1940 1941 2142 2141
4 1941 1942 2143 2142
4 1942 1943 2144 2143
4 1943 1944 2145 2144
4 1944 1945 2146 2145
4 1945 1946 2147 2146
4 1946 1947 2148 2147
4 1947 1948 2149 2148
4 1948 1949 2150 2149
4 1949 1950 2151 2150
4 1950 1951 2152 2151
4 1951 1952 2153 2152
4 1952 1953 2154 2153
4 1953 1954 2155 2154
4 1954 1955 2156 2155
4 1955 1956 2157 2156
4 1956 1957 2158 2157
4 1957 1958 2159 2158
4 1958 1959 2160 2159
4 1959 1960 2161 2160
4 1960 1961 2162 2161
4 1961 1962 2163 2162
4 1962 1963 2164 2163
4 1963 1964 2165 2164
4 1964 1965 2166 2165
4 1965 1966 2167 2166
4 1966 1967 2168 2167
4 1967 1968 2169 2168
4 1968 1969 2170 2169
4 1969 1970 2171 2170
4 1970 1971 2172 2171
4 1971 1972 2173 2172
4 1972 1973 2174 2173
4 1973 1974 2175 2174
4 1974 1975 2176 2175
4 1975 1976 2177 2176
4 1976 1977 2178 2177
4 1977 1978 2179 2178
4 1978 1979 2180 2179
4 1979 1980 2181 2180
4 1980 1981 2182 2181
4 1981 1982 2183 2182
4 1982 1983 2184 2183
4 1983 1984 2185 2184
4 1984 1985 2186 2185
4 1985 1986 2187 2186
4 1986 1987 2188 2187
4 1987 1988 2189 2188
4 1988 1989 2190 2189
4 1989 1990 2191 2190
4 1990 1991 2192 2191
4 1991 1992 2193 2192
4 1992 1993 2194 2193
4 1993 1994 2195 2194
4 1994 1995 2196 2195
4 1995 1996 2197 2196
4 1996 1997 2198 2197
4 1997 1998 2199 2198
4 1998 1999 2200 2199
4 1999 2000 2201 2200
4 2000 2001 2202 2201
4 2001 2002 2203 2202
4 2002 2003 2204 2203
4 2003 2004 2205 2204
4 2004 2005 2206 2205
4 2005 2006 2207 2206
4 2006 2007 2208 2207
4 2007 2008 2209 2208
4 2008 2009 2210 2209
4 2010 2011 2212 2211
4 2011 2012 2213 2212
4 2012 2013 2214 2213
4 2013 2014 2215 2214
4 2014 2015 2216 2215
4 2015 2016 2217 2216
4 2016 2017 2218 2217
4 2017 2018 2219 2218
4 2018 2019 2220 2219
4 2019 2020 2221 2220
4 2020 2021 2222 2221
4 2021 2022 2223 2222
4 2022 2023 2224 2223
4 2023 2024 2225 2224
4 2024 2025 2226 2225
4 2025 2026 2227 2226
4 2026 2027 2228 2227
4 2027 2028 2229 2228
4 2028 2029 2230 2229
4 2029 2030 2231 2230
4 2030 2031 2232 2231
4 2031 2032 2233 2232
4 2032 2033 2234 2233
4 2033 2034 2235 2234
4 2034 2035 2236 2235
4 2035 2036 2237 2236
4 2036 2037 2238 2237
4 2037 2038 2239 2238
4 2038 2039 2240 2239
4 2039 2040 2241 2240
4 2040 2041 2242 2241
4 2041 2042 2243 2242
4 2042 2043 2244 2243
4 2043 2044 2245 2244
4 2044 2045 2246 2245
4 2045 2046 2247 2246
4 2046 2047 2248 2247
4 2047 2048 2249 2248
4 2048 2049 2250 2249
4 2049 2050 2251 2250
4 2050 2051 2252 2251
4 2051 2052 2253 2252
4 2052 2053 2254 2253
4 2053 2054 2255 2254
4 2054 2055 2256 2255
4 2055 2056 2257 2256
4 2056 2057 2258 2257
4 2057 2058 2259 2258
4 2058 2059 2260 2259
4 2059 2060 2261 2260
4 2060 2061 2262 2261
4 2061 2062 2263 2262
4 2062 2063 2264 2263
4 2063 2064 2265 2264
4 2064 2065 2266 2265
4 2065 2066 2267 2266
4 2066 2067 2268 2267
4 2067 2068 2269 2268
4 2068 2069 2270 2269
4 2069 2070 2271 2270
4 2070 2071 2272 2271
4 2071 2072 2273 2272
4 2072 2073 2274 2273
4 2073 2074 2275 2274
4 2074 2075 2276 2275
4 2075 2076 2277 2276
4 2076 2077 2278 2277
4 2077 2078 2279 2278
4 2078 2079 2280 2279
4 2079 2080 2281 2280
4 2080 2081 2282 2281
4 2081 2082 2283 2282
4 2082 2083 2284 2283
4 2083 2084 2285 2284
4 2084 2085 2286 2285
4 2085 2086 2287 2286
4 2086 2087 2288 2287
4 2087 2088 2289 2288
4 2088 2089 2290 2289
4 2089 2090 2291 2290
4 2090 2091 2292 2291
4 2091 2092 2293 2292
4 2092 2093 2294 2293
4 2093 2094 2295 2294
4 2094 2095 2296 2295
4 2095 2096 2297 2296
4 2096 2097 2298 2297
4 2097 2098 2299 2298
4 2098 2099 2300 2299
4 2099 2100 2301 2300
4 2100 2101 2302 2301
4 2101 2102 2303 2302
4 2102 2103 2304 2303
4 2103 2104 2305 2304
4 2104 2105 2306 2305
4 2105 2106 2307 2306
4 2106 2107 2308 2307
4 2107 2108 2309 2308
4 2108 2109 2310 2309
4 2109 2110 2311 2310
4 2110 2111 2312 2311
4 2111 2112 2313 2312
4 2112 2113 2314 2313
4 2113 2114 2315 2314
4 2114 2115 2316 2315
4 2115 2116 2317 2316
4 2116 2117 2318 2317
4 2117 2118 2319 2318
4 2118 2119 2320 2319
4 2119 2120 2321 2320
4 2120 2121 2322 2321
4 2121 2122 2323 2322
4 2122 2123 2324 2323
4 2123 2124 2325 2324
4 2124 2125 2326 2325
4 2125 2126 2327 2326
4 2126 2127 2328 2327
4 2127 2128 2329 2328
4 2128 2129 2330 2329
4 2129 2130 2331 2330
4 2130 2131 2332 2331
4 2131 2132 2333 2332
4 2132 2133 2334 2333
4 2133 2134 2335 2334
4 2134 2135 2336 2335
4 2135 2136 2337 2336
4 2136 2137 2338 2337
4 2137 2138 2339 2338
4 2138 2139 2340 2339
4 2139 2140 2341 2340
4 2140 2141 2342 2341
4 2141 2142 2343 2342
4 2142 2143 2344 2343
4 2143 2144 2345 2344
4 2144 2145 2346 2345
4 2145 2146 2347 2346
4 2146 2147 2348 2347
4 2147 2148 2349 2348
4 2148 2149 2350 2349
4 2149 2150 2351 2350
4 2150 2151 2352 2351
4 2151 2152 2353 2352
4 2152 2153 2354 2353
4 2153 2154 2355 2354
4 2154 2155 2356 2355
4 2155 2156 2357 2356
4 2156 2157 2358 2357
4 2157 2158 2359 2358
4 2158 2159 2360 2359
4 2159 2160 2361 2360
4 2160 2161 2362 2361
4 2161 2162 2363 2362
4 2162 2163 2364 2363
4 2163 2164 2365 2364
4 2164 2165 2366 2365
4 2165 2166 2367 2366
4 2166 2167 2368 2367
4 2167 2168 2369 2368
4 2168 2169 2370 2369
4 2169 2170 2371 2370
4 2170 2171 2372 2371
4 2171 2172 2373 2372
4 2172 2173 2374 2373
4 2173 2174 2375 2374
4 2174 2175 2376 2375
4 2175 2176 2377 2376
4 2176 2177 2378 2377
4 2177 2178 2379 2378
4 2178 2179 2380 2379
4 2179 2180 2381 2380
4 2180 2181 2382 2381
4 2181 2182 2383 2382
4 2182 2183 2384 2383
4 2183 2184 2385 2384
4 2184 2185 2386 2385
4 2185 2186 2387 2386
4 2186 2187 2388 2387
4 2187 2188 2389 2388
4 2188 2189 2390 2389
4 2189 2190 2391 2390
4 2190 2191 2392 2391
4 2191 2192 2393 2392
4 2192 2193 2394 2393
4 2193 2194 2395 2394
4 2194 2195 2396 2395
4 2195 2196 2397 2396
4 2196 2197 2398 2397
4 2197 2198 2399 2398
4 2198 2199 2400 2399
4 2199 2200 2401 2400
4 2200 2201 2402 2401
4 2201 2202 2403 2402
4 2202 2203 2404 2403
4 2203 2204 2405 2404
4 2204 2205 2406 2405
4 2205 2206 2407 2406
4 2206 2207 2408 2407
4 2207 2208 2409 2408
4 2208 2209 2410 2409
4 2209 2210 2411 2410
4 2211 2212 2413 2412
4 2212 2213 2414 2413
4 2213 2214 2415 2414
4 2214 2215 2416 2415
4 2215 2216 2417 2416
4 2216 2217 2418 2417
4 2217 2218 2419 2418
4 2218 2219 2420 2419
4 2219 2220 2421 2420
4 2220 2221 2422 2421
4 2221 2222 2423 2422
4 2222 2223 2424 2423
4 2223 2224 2425 2424
4 2224 2225 2426 2425
4 2225 2226 2427 2426
4 2226 2227 2428 2427
4 2227 2228 2429 2428
4 2228 2229 2430 2429
4 2229 2230 2431 2430
4 2230 2231 2432 2431
4 2231 2232 2433 2432
4 2232 2233 2434 2433
4 2233 2234 2435 2434
4 2234 2235 2436 2435
4 2235 2236 2437 2436
4 2236 2237 2438 2437
4 2237 2238 2439 2438
4 2238 2239 2440 2439
4 2239 2240 2441 2440
4 2240 2241 2442 2441
4 2241 2242 2443 2442
4 2242 2243 2444 2443
4 2243 2244 2445 2444
4 2244 2245 2446 2445
4 2245 2246 2447 2446
4 2246 2247 2448 2447
4 2247 2248 2449 2448
4 2248 2249 2450 2449
4 2249 2250 2451 2450
4 2250 2251 2452 2451
4 2251 2252 2453 2452
4 2252 2253 2454 2453
4 2253 2254 2455 2454
4 2254 2255 2456 2455
4 2255 2256 2457 2456
4 2256 2257 2458 2457
4 2257 2258 2459 2458
4 2258 2259 2460 2459
4 2259 2260 2461 2460
4 2260 2261 2462 2461
4 2261 2262 2463 2462
4 2262 2263 2464 2463
4 2263 2264 2465 2464
4 2264 2265 2466 2465
4 2265 2266 2467 2466
4 2266 2267 2468 2467
4 2267 2268 2469 2468
4 2268 2269 2470 2469
4 2269 2270 2471 2470
4 2270 2271 2472 2471
4 2271 2272 2473 2472
4 2272 2273 2474 2473
4 2273 2274 2475 2474
4 2274 2275 2476 2475
4 2275 2276 2477 2476
4 2276 2277 2478 2477
4 2277 2278 2479 2478
4 2278 2279 2480 2479
4 2279 2280 2481 2480
4 2280 2281 2482 2481
4 2281 2282 2483 2482
4 2282 2283 2484 2483
4 2283 2284 2485 2484
4 2284 2285 2486 2485
4 2285 2286 2487 2486
4 2286 2287 2488 2487
4 2287 2288 2489 2488
4 2288 2289 2490 2489
4 2289 2290 2491 2490
4 2290 2291 2492 2491
4 2291 2292 2493 2492
4 2292 2293 2494 2493
4 2293 2294 2495 2494
4 2294 2295 2496 2495
4 2295 2296 2497 2496
4 2296 2297 2498 2497
4 2297 2298 2499 2498
4 2298 2299 2500 2499
4 2299 2300 2501 2500
4 2300 2301 2502 2501
4 2301 2302 2503 2502
4 2302 2303 2504 2503
4 2303 2304 2505 2504
4 2304 2305 2506 2505
4 2305 2306 2507 2506
4 2306 2307 2508 2507
4 2307 2308 2509 2508
4 2308 2309 2510 2509
4 2309 2310 2511 2510
4 2310 2311 2512 2511
4 2311 2312 2513 2512
4 2312 2313 2514 2513
4 2313 2314 2515 2514
4 2314 2315 2516 2515
4 2315 2316 2517 2516
4 2316 2317 2518 2517
4 2317 2318 2519 2518
4 2318 2319 2520 2519
4 2319 2320 2521 2520
4 2320 2321 2522 2521
4 2321 2322 2523 2522
4 2322 2323 2524 2523
4 2323 2324 2525 2524
4 2324 2325 2526 2525
4 2325 2326 2527 2526
4 2326 2327 2528 2527
4 2327 2328 2529 2528
4 2328 2329 2530 2529
4 2329 2330 2531 2530
4 2330 2331 2532 2531
4 2331 2332 2533 2532
4 2332 2333 2534 2533
4 2333 2334 2535 2534
4 2334 2335 2536 2535
4 2335 2336 2537 2536
4 2336 2337 2538 2537
4 2337 2338 2539 2538
4 2338 2339 2540 2539
4 2339 2340 2541 2540
4 2340 2341 2542 2541
4 2341 2342 2543 2542
4 2342 2343 2544 2543
4 2343 2344 2545 2544
4 2344 2345 2546 2545
4 2345 2346 2547 2546
4 2346 2347 2548 2547
4 2347 2348 2549 2548
4 2348 2349 2550 2549
4 2349 2350 2551 2550
4 2350 2351 2552 2551
4 2351 2352 2553 2552
4 2352 2353 2554 2553
4 2353 2354 2555 2554
4 2354 2355 2556 2555
4 2355 2356 2557 2556
4 2356 2357 2558 2557
4 2357 2358 2559 2558
4 2358 2359 2560 2559
4 2359 2360 2561 2560
4 2360 2361 2562 2561
4 2361 2362 2563 2562
4 2362 2363 2564 2563
4 2363 2364 2565 2564
4 2364 2365 2566 2565
4 2365 2366 2567 2566
4 2366 2367 2568 2567
4 2367 2368 2569 2568
4 2368 2369 2570 2569
4 2369 2370 2571 2570
4 2370 2371 2572 2571
4 2371 2372 2573 2572
4 2372 2373 2574 2573
4 2373 2374 2575 2574
4 2374 2375 2576 2575
4 2375 2376 2577 2576
4 2376 2377 2578 2577
4 2377 2378 2579 2578
4 2378 2379 2580 2579
4 2379 2380 2581 2580
4 2380 2381 2582 2581
4 2381 2382 2583 2582
4 2382 2383 2584 2583
4 2383 2384 2585 2584
4 2384 2385 2586 2585
4 2385 2386 2587 2586
4 2386 2387 2588 2587
4 2387 2388 2589 2588
4 2388 2389 2590 2589
4 2389 2390 2591 2590
4 2390 2391 2592 2591
4 2391 2392 2593 2592
4 2392 2393 2594 2593
4 2393 2394 2595 2594
4 2394 2395 2596 2595
4 2395 2396 2597 2596
4 2396 2397 2598 2597
4 2397 2398 2599 2598
4 2398 2399 2600 2599
4 2399 2400 2601 2600
4 2400 2401 2602 2601
4 2401 2402 2603 2602
4 2402 2403 2604 2603
4 2403 2404 2605 2604
4 2404 2405 2606 2605
4 2405 2406 2607 2606
4 2406 2407 2608 2607
4 2407 2408 2609 2608
4 2408 2409 2610 2609
4 2409 2410 2611 2610
4 2410 2411 2612 2611
4 2412 2413 2614 2613
4 2413 2414 2615 2614
4 2414 2415 2616 2615
4 2415 2416 2617 2616
4 2416 2417 2618 2617
4 2417 2418 2619 2618
4 2418 2419 2620 2619
4 2419 2420 2621 2620
4 2420 2421 2622 2621
4 2421 2422 2623 2622
4 2422 2423 2624 2623
4 2423 2424 2625 2624
4 2424 2425 2626 2625
4 2425 2426 2627 2626
4 2426 2427 2628 2627
4 2427 2428 2629 2628
4 2428 2429 2630 2629
4 2429 2430 2631 2630
4 2430 2431 2632 2631
4 2431 2432 2633 2632
4 2432 2433 2634 2633
4 2433 2434 2635 2634
4 2434 2435 2636 2635
4 2435 2436 2637 2636
4 2436 2437 2638 2637
4 2437 2438 2639 2638
4 2438 2439 2640 2639
4 2439 2440 2641 2640
4 2440 2441 2642 2641
4 2441 2442 2643 2642
4 2442 2443 2644 2643
4 2443 2444 2645 2644
4 2444 2445 2646 2645
4 2445 2446 2647 2646
4 2446 2447 2648 2647
4 2447 2448 2649 2648
4 2448 2449 2650 2649
4 2449 2450 2651 2650
4 2450 2451 2652 2651
4 2451 2452 2653 2652
4 2452 2453 2654 2653
4 2453 2454 2655 2654
4 2454 2455 2656 2655
4 2455 2456 2657 2656
4 2456 2457 2658 2657
4 2457 2458 2659 2658
4 2458 2459 2660 2659
4 2459 2460 2661 2660
4 2460 2461 2662 2661
4 2461 2462 2663 2662
4 2462 2463 2664 2663
4 2463 2464 2665 2664
4 2464 2465 2666 2665
4 2465 2466 2667 2666
4 2466 2467 2668 2667
4 2467 2468 2669 2668
4 2468 2469 2670 2669
4 2469 2470 2671 2670
4 2470 2471 2672 2671
4 2471 2472 2673 2672
4 2472 2473 2674 2673
4 2473 2474 2675 2674
4 2474 2475 2676 2675
4 2475 2476 2677 2676
4 2476 2477 2678 2677
4 2477 2478 2679 2678
4 2478 2479 2680 2679
4 2479 2480 2681 2680
4 2480 2481 2682 2681
4 2481 2482 2683 2682
4 2482 2483 2684 2683
4 2483 2484 2685 2684
4 2484 2485 2686 2685
4 2485 2486 2687 2686
4 2486 2487 2688 2687
4 2487 2488 2689 2688
4 2488 2489 2690 2689
4 2489 2490 2691 2690
4 2490 2491 2692 2691
4 2491 2492 2693 2692
4 2492 2493 2694 2693
4 2493 2494 2695 2694
4 2494 2495 2696 2695
4 2495 2496 2697 2696
4 2496 2497 2698 2697
4 2497 2498 2699 2698
4 2498 2499 2700 2699
4 2499 2500 2701 2700
4 2500 2501 2702 2701
4 2501 2502 2703 2702
4 2502 2503 2704 2703
4 2503 2504 2705 2704
4 2504 2505 2706 2705
4 2505 2506 2707 2706
4 2506 2507 2708 2707
4 2507 2508 2709 2708
4 2508 2509 2710 2709
4 2509 2510 2711 2710
4 2510 2511 2712 2711
4 2511 2512 2713 2712
4 2512 2513 2714 2713
4 2513 2514 2715 2714
4 2514 2515 2716 2715
4 2515 2516 2717 2716
4 2516 2517 2718 2717
4 2517 2518 2719 2718
4 2518 2519 2720 2719
4 2519 2520 2721 2720
4 2520 2521 2722 2721
4 2521 2522 2723 2722
4 2522 2523 2724 2723
4 2523 2524 2725 2724
4 2524 2525 2726 2725
4 2525 2526 2727 2726
4 2526 2527 2728 2727
4 2527 2528 2729 2728
4 2528 2529 2730 2729
4 2529 2530 2731 2730
4 2530 2531 2732 2731
4 2531 2532 2733 2732
4 2532 2533 2734 2733
4 2533 2534 2735 2734
4 2534 2535 2736 2735
4 2535 2536 2737 2736
4 2536 2537 2738 2737
4 2537 2538 2739 2738
4 2538 2539 2740 2739
4 2539 2540 2741 2740
4 2540 2541 2742 2741
4 2541 2542 2743 2742
4 2542 2543 2744 2743
4 2543 2544 2745 2744
4 2544 2545 2746 2745
4 2545 2546 2747 2746
4 2546 2547 2748 2747
4 2547 2548 2749 2748
4 2548 2549 2750 2749
4 2549 2550 2751 2750
4 2550 2551 2752 2751
4 2551 2552 2753 2752
4 2552 2553 2754 2753
4 2553 2554 2755 2754
4 2554 2555 2756 2755
4 2555 2556 2757 2756
4 2556 2557 2758 2757
4 2557 2558 2759 2758
4 2558 2559 2760 2759
4 2559 2560 2761 2760
4 2560 2561 2762 2761
4 2561 2562 2763 2762
4 2562 2563 2764 2763
4 2563 2564 2765 2764
4 2564 2565 2766 2765
4 2565 2566 2767 2766
4 2566 2567 2768 2767
4 2567 2568 2769 2768
4 2568 2569 2770 2769
4 2569 2570 2771 2770
4 2570 2571 2772 2771
4 2571 2572 2773 2772
4 2572 2573 2774 2773
4 2573 2574 2775 2774
4 2574 2575 2776 2775
4 2575 2576 2777 2776
4 2576 2577 2778 2777
4 2577 2578 2779 2778
4 2578 2579 2780 2779
4 2579 2580 2781 2780
4 2580 2581 2782 2781
4 2581 2582 2783 2782
4 2582 2583 2784 2783
4 2583 2584 2785 2784
4 2584 2585 2786 2785
4 2585 2586 2787 2786
4 2586 2587 2788 2787
4 2587 2588 2789 2788
4 2588 2589 2790 2789
4 2589 2590 2791 2790
4 2590 2591 2792 2791
4 2591 2592 2793 2792
4 2592 2593 2794 2793
4 2593 2594 2795 2794
4 2594 2595 2796 2795
4 2595 2596 2797 2796
4 2596 2597 2798 2797
4 2597 2598 2799 2798
4 2598 2599 2800 2799
4 2599 2600 2801 2800
4 2600 2601 2802 2801
4 2601 2602 2803 2802
4 2602 2603 2804 2803
4 2603 2604 2805 2804
4 2604 2605 2806 2805
4 2605 2606 2807 2806
4 2606 2607 2808 2807
4 2607 2608 2809 2808
4 2608 2609 2810 2809
4 2609 2610 2811 2810
4 2610 2611 2812 2811
4 2611 2612 2813 2812
4 2613 2614 2815 2814
4 2614 2615 2816 2815
4 2615 2616 2817 2816
4 2616 2617 2818 2817
4 2617 2618 2819 2818
4 2618 2619 2820 2819
4 2619 2620 2821 2820
4 2620 2621 2822 2821
4 2621 2622 2823 2822
4 2622 2623 2824 2823
4 2623 2624 2825 2824
4 2624 2625 2826 2825
4 2625 2626 2827 2826
4 2626 2627 2828 2827
4 2627 2628 2829 2828
4 2628 2629 2830 2829
4 2629 2630 2831 2830
4 2630 2631 2832 2831
4 2631 2632 2833 2832
4 2632 2633 2834 2833
4 2633 2634 2835 2834
4 2634 2635 2836 2835
4 2635 2636 2837 2836
4 2636 2637 2838 2837
4 2637 2638 2839 2838
4 2638 2639 2840 2839
4 2639 2640 2841 2840
4 2640 2641 2842 2841
4 2641 2642 2843 2842
4 2642 2643 2844 2843
4 2643 2644 2845 2844
4 2644 2645 2846 2845
4 2645 2646 2847 2846
4 2646 2647 2848 2847
4 2647 2648 2849 2848
4 2648 2649 2850 2849
4 2649 2650 2851 2850
4 2650 2651 2852 2851
4 2651 2652 2853 2852
4 2652 2653 2854 2853
4 2653 2654 2855 2854
4 2654 2655 2856 2855
4 2655 2656 2857 2856
4 2656 2657 2858 2857
4 2657 2658 2859 2858
4 2658 2659 2860 2859
4 2659 2660 2861 2860
4 2660 2661 2862 2861
4 2661 2662 2863 2862
4 2662 2663 2864 2863
4 2663 2664 2865 2864
4 2664 2665 2866 2865
4 2665 2666 2867 2866
4 2666 2667 2868 2867
4 2667 2668 2869 2868
4 2668 2669 2870 2869
4 2669 2670 2871 2870
4 2670 2671 2872 2871
4 2671 2672 2873 2872
4 2672 2673 2874 2873
4 2673 2674 2875 2874
4 2674 2675 2876 2875
4 2675 2676 2877 2876
4 2676 2677 2878 2877
4 2677 2678 2879 2878
4 2678 2679 2880 2879
4 2679 2680 2881 2880
4 2680 2681 2882 2881
4 2681 2682 2883 2882
4 2682 2683 2884 2883
4 2683 2684 2885 2884
4 2684 2685 2886 2885
4 2685 2686 2887 2886
4 2686 2687 2888 2887
4 2687 2688 2889 2888
4 2688 2689 2890 2889
4 2689 2690 2891 2890
4 2690 2691 2892 2891
4 2691 2692 2893 2892
4 2692 2693 2894 2893
4 2693 2694 2895 2894
4 2694 2695 2896 2895
4 2695 2696 2897 2896
4 2696 2697 2898 2897
4 2697 2698 2899 2898
4 2698 2699 2900 2899
4 2699 2700 2901 2900
4 2700 2701 2902 2901
4 2701 2702 2903 2902
4 2702 2703 2904 2903
4 2703 2704 2905 2904
4 2704 2705 2906 2905
4 2705 2706 2907 2906
4 2706 2707 2908 2907
4 2707 2708 2909 2908
4 2708 2709 2910 2909
4 2709 2710 2911 2910
4 2710 2711 2912 2911
4 2711 2712 2913 2912
4 2712 2713 2914 2913
4 2713 2714 2915 2914
4 2714 2715 2916 2915
4 2715 2716 2917 2916
4 2716 2717 2918 2917
4 2717 2718 2919 2918
4 2718 2719 2920 2919
4 2719 2720 2921 2920
4 2720 2721 2922 2921
4 2721 2722 2923 2922
4 2722 2723 2924 2923
4 2723 2724 2925 2924
4 2724 2725 2926 2925
4 2725 2726 2927 2926
4 2726 2727 2928 2927
4 2727 2728 2929 2928
4 2728 2729 2930 2929
4 2729 2730 2931 2930
4 2730 2731 2932 2931
4 2731 2732 2933 2932
4 2732 2733 2934 2933
4 2733 2734 2935 2934
4 2734 2735 2936 2935
4 2735 2736 2937 2936
4 2736 2737 2938 2937
4 2737 2738 2939 2938
4 2738 2739 2940 2939
4 2739 2740 2941 2940
4 2740 2741 2942 2941
4 2741 2742 2943 2942
4 2742 2743 2944 2943
4 2743 2744 2945 2944
4 2744 2745 2946 2945
4 2745 2746 2947 2946
4 2746 2747 2948 2947
4 2747 2748 2949 2948
4 2748 2749 2950 2949
4 2749 2750 2951 2950
4 2750 2751 2952 2951
4 2751 2752 2953 2952
4 2752 2753 2954 2953
4 2753 2754 2955 2954
4 2754 2755 2956 2955
4 2755 2756 2957 2956
4 2756 2757 2958 2957
4 2757 2758 2959 2958
4 2758 2759 2960 2959
4 2759 2760 2961 2960
4 2760 2761 2962 2961
4 2761 2762 2963 2962
4 2762 2763 2964 2963
4 2763 2764 2965 2964
4 2764 2765 2966 2965
4 2765 2766 2967 2966
4 2766 2767 2968 2967
4 2767 2768 2969 2968
4 2768 2769 2970 2969
4 2769 2770 2971 2970
4 2770 2771 2972 2971
4 2771 2772 2973 2972
4 2772 2773 2974 2973
4 2773 2774 2975 2974
4 2774 2775 2976 2975
4 2775 2776 2977 2976
4 2776 2777 2978 2977
4 2777 2778 2979 2978
4 2778 2779 2980 2979
4 2779 2780 2981 2980
4 2780 2781 2982 2981
4 2781 2782 2983 2982
4 2782 2783 2984 2983
4 2783 2784 2985 2984
4 2784 2785 2986 2985
4 2785 2786 2987 2986
4 2786 2787 2988 2987
4 2787 2788 2989 2988
4 2788 2789 2990 2989
4 2789 2790 2991 2990
4 2790 2791 2992 2991
4 2791 2792 2993 2992
4 2792 2793 2994 2993
4 2793 2794 2995 2994
4 2794 2795 2996 2995
4 2795 2796 2997 2996
4 2796 2797 2998 2997
4 2797 2798 2999 2998
4 2798 2799 3000 2999
4 2799 2800 3001 3000
4 2800 2801 3002 3001
4 2801 2802 3003 3002
4 2802 2803 3004 3003
4 2803 2804 3005 3004
4 2804 2805 3006 3005
4 2805 2806 3007 3006
4 2806 2807 3008 3007
4 2807 2808 3009 3008
4 2808 2809 3010 3009
4 2809 2810 3011 3010
4 2810 2811 3012 3011
4 2811 2812 3013 3012
4 2812 2813 3014 3013
4 2814 2815 3016 3015
4 2815 2816 3017 3016
4 2816 2817 3018 3017
4 2817 2818 3019 3018
4 2818 2819 3020 3019
4 2819 2820 3021 3020
4 2820 2821 3022 3021
4 2821 2822 3023 3022
4 2822 2823 3024 3023
4 2823 2824 3025 3024
4 2824 2825 3026 3025
4 2825 2826 3027 3026
4 2826 2827 3028 3027
4 2827 2828 3029 3028
4 2828 2829 3030 3029
4 2829 2830 3031 3030
4 2830 2831 3032 3031
4 2831 2832 3033 3032
4 2832 2833 3034 3033
4 2833 2834 3035 3034
4 2834 2835 3036 3035
4 2835 2836 3037 3036
4 2836 2837 3038 3037
4 2837 2838 3039 3038
4 2838 2839 3040 3039
4 2839 2840 3041 3040
4 2840 2841 3042 3041
4 2841 2842 3043 3042
4 2842 2843 3044 3043
4 2843 2844 3045 3044
4 2844 2845 3046 3045
4 2845 2846 3047 3046
4 2846 2847 3048 3047
4 2847 2848 3049 3048
4 2848 2849 3050 3049
4 2849 2850 3051 3050
4 2850 2851 3052 3051
4 2851 2852 3053 3052
4 2852 2853 3054 3053
4 2853 2854 3055 3054
4 2854 2855 3056 3055
4 2855 2856 3057 3056
4 2856 2857 3058 3057
4 2857 2858 3059 3058
4 2858 2859 3060 3059
4 2859 2860 3061 3060
4 2860 2861 3062 3061
4 2861 2862 3063 3062
4 2862 2863 3064 3063
4 2863 2864 3065 3064
4 2864 2865 3066 3065
4 2865 2866 3067 3066
4 2866 2867 3068 3067
4 2867 2868 3069 3068
4 2868 2869 3070 3069
4 2869 2870 3071 3070
4 2870 2871 3072 3071
4 2871 2872 3073 3072
4 2872 2873 3074 3073
4 2873 2874 3075 3074
4 2874 2875 3076 3075
4 2875 2876 3077 3076
4 2876 2877 3078 3077
4 2877 2878 3079 3078
4 2878 2879 3080 3079
4 2879 2880 3081 3080
4 2880 2881 3082 3081
4 2881 2882 3083 3082
4 2882 2883 3084 3083
4 2883 2884 3085 3084
4 2884 2885 3086 3085
4 2885 2886 3087 3086
4 2886 2887 3088 3087
4 2887 2888 3089 3088
4 2888 2889 3090 3089
4 2889 2890 3091 3090
4 2890 2891 3092 3091
4 2891 2892 3093 3092
4 2892 2893 3094 3093
4 2893 2894 3095 3094
4 2894 2895 3096 3095
4 2895 2896 3097 3096
4 2896 2897 3098 3097
4 2897 2898 3099 3098
4 2898 2899 3100 3099
4 2899 2900 3101 3100
4 2900 2901 3102 3101
4 2901 2902 3103 3102
4 2902 2903 3104 3103
4 2903 2904 3105 3104
4 2904 2905 3106 3105
4 2905 2906 3107 3106
4 2906 2907 3108 3107
4 2907 2908 3109 3108
4 2908 2909 3110 3109
4 2909 2910 3111 3110
4 2910 2911 3112 3111
4 2911 2912 3113 3112
4 2912 2913 3114 3113
4 2913 2914 3115 3114
4 2914 2915 3116 3115
4 2915 2916 3117 3116
4 2916 2917 3118 3117
4 2917 2918 3119 3118
4 2918 2919 3120 3119
4 2919 2920 3121 3120
4 2920 2921 3122 3121
4 2921 2922 3123 3122
4 2922 2923 3124 3123
4 2923 2924 3125 3124
4 2924 2925 3126 3125
4 2925 2926 3127 3126
4 2926 2927 3128 3127
4 2927 2928 3129 3128
4 2928 2929 3130 3129
4 2929 2930 3131 3130
4 2930 2931 3132 3131
4 2931 2932 3133 3132
4 2932 2933 3134 3133
4 2933 2934 3135 3134
4 2934 2935 3136 3135
4 2935 2936 3137 3136
4 2936 2937 3138 3137
4 2937 2938 3139 3138
4 2938 2939 3140 3139
4 2939 2940 3141 3140
4 2940 2941 3142 3141
4 2941 2942 3143 3142
4 2942 2943 3144 3143
4 2943 2944 3145 3144
4 2944 2945 3146 3145
4 2945 2946 3147 3146
4 2946 2947 3148 3147
4 2947 2948 3149 3148
4 2948 2949 3150 3149
4 2949 2950 3151 3150
4 2950 2951 3152 3151
4 2951 2952 3153 3152
4 2952 2953 3154 3153
4 2953 2954 3155 3154
4 2954 2955 3156 3155
4 2955 2956 3157 3156
4 2956 2957 3158 3157
4 2957 2958 3159 3158
4 2958 2959 3160 3159
4 2959 2960 3161 3160
4 2960 2961 3162 3161
4 2961 2962 3163 3162
4 2962 2963 3164 3163
4 2963 2964 3165 3164
4 2964 2965 3166 3165
4 2965 2966 3167 3166
4 2966 2967 3168 3167
4 2967 2968 3169 3168
4 2968 2969 3170 3169
4 2969 2970 3171 3170
4 2970 2971 3172 3171
4 2971 2972 3173 3172
4 2972 2973 3174 3173
4 2973 2974 3175 3174
4 2974 2975 3176 3175
4 2975 2976 3177 3176
4 2976 2977 3178 3177
4 2977 2978 3179 3178
4 2978 2979 3180 3179
4 2979 2980 3181 3180
4 2980 2981 3182 3181
4 2981 2982 3183 3182
4 2982 2983 3184 3183
4 2983 2984 3185 3184
4 2984 2985 3186 3185
4 2985 2986 3187 3186
4 2986 2987 3188 3187
4 2987 2988 3189 3188
4 2988 2989 3190 3189
4 2989 2990 3191 3190
4 2990 2991 3192 3191
4 2991 2992 3193 3192
4 2992 2993 3194 3193
4 2993 2994 3195 3194
4 2994 2995 3196 3195
4 2995 2996 3197 3196
4 2996 2997 3198 3197
4 2997 2998 3199 3198
4 2998 2999 3200 3199
4 2999 3000 3201 3200
4 3000 3001 3202 3201
4 3001 3002 3203 3202
4 3002 3003 3204 3203
4 3003 3004 3205 3204
4 3004 3005 3206 3205
4 3005 3006 3207 3206
4 3006 3007 3208 3207
4 3007 3008 3209 3208
4 3008 3009 3210 3209
4 3009 3010 3211 3210
4 3010 3011 3212 3211
4 3011 3012 3213 3212
4 3012 3013 3214 3213
4 3013 3014 3215 3214
4 3015 3016 3217 3216
4 3016 3017 3218 3217
4 3017 3018 3219 3218
4 3018 3019 3220 3219
4 3019 3020 3221 3220
4 3020 3021 3222 3221
4 3021 3022 3223 3222
4 3022 3023 3224 3223
4 3023 3024 3225 3224
4 3024 3025 3226 3225
4 3025 3026 3227 3226
4 3026 3027 3228 3227
4 3027 3028 3229 3228
4 3028 3029 3230 3229
4 3029 3030 3231 3230
4 3030 3031 3232 3231
4 3031 3032 3233 3232
4 3032 3033 3234 3233
4 3033 3034 3235 3234
4 3034 3035 3236 3235
4 3035 3036 3237 3236
4 3036 3037 3238 3237
4 3037 3038 3239 3238
4 3038 3039 3240 3239
4 3039 3040 3241 3240
4 3040 3041 3242 3241
4 3041 3042 3243 3242
4 3042 3043 3244 3243
4 3043 3044 3245 3244
4 3044 3045 3246 3245
4 3045 3046 3247 3246
4 3046 3047 3248 3247
4 3047 3048 3249 3248
4 3048 3049 3250 3249
4 3049 3050 3251 3250
4 3050 3051 3252 3251
4 3051 3052 3253 3252
4 3052 3053 3254 3253
4 3053 3054 3255 3254
4 3054 3055 3256 3255
4 3055 3056 3257 3256
4 3056 3057 3258 3257
4 3057 3058 3259 3258
4 3058 3059 3260 3259
4 3059 3060 3261 3260
4 3060 3061 3262 3261
4 3061 3062 3263 3262
4 3062 3063 3264 3263
4 3063 3064 3265 3264
4 3064 3065 3266 3265
4 3065 3066 3267 3266
4 3066 3067 3268 3267
4 3067 3068 3269 3268
4 3068 3069 3270 3269
4 3069 3070 3271 3270
4 3070 3071 3272 3271
4 3071 3072 3273 3272
4 3072 3073 3274 3273
4 3073 3074 3275 3274
4 3074 3075 3276 3275
4 3075 3076 3277 3276
4 3076 3077 3278 3277
4 3077 3078 3279 3278
4 3078 3079 3280 3279
4 3079 3080 3281 3280
4 3080 3081 3282 3281
4 3081 3082 3283 3282
4 3082 3083 3284 3283
4 3083 3084 3285 3284
4 3084 3085 3286 3285
4 3085 3086 3287 3286
4 3086 3087 3288 3287
4 3087 3088 3289 3288
4 3088 3089 3290 3289
4 3089 3090 3291 3290
4 3090 3091 3292 3291
4 3091 3092 3293 3292
4 3092 3093 3294 3293
4 3093 3094 3295 3294
4 3094 3095 3296 3295
4 3095 3096 3297 3296
4 3096 3097 3298 3297
4 3097 3098 3299 3298
4 3098 3099 3300 3299
4 3099 3100 3301 3300
4 3100 3101 3302 3301
4 3101 3102 3303 3302
4 3102 3103 3304 3303
4 3103 3104 3305 3304
4 3104 3105 3306 3305
4 3105 3106 3307 3306
4 3106 3107 3308 3307
4 3107 3108 3309 3308
4 3108 3109 3310 3309
4 3109 3110 3311 3310
4 3110 3111 3312 3311
4 3111 3112 3313 3312
4 3112 3113 3314 3313
4 3113 3114 3315 3314
4 3114 3115 3316 3315
4 3115 3116 3317 3316
4 3116 3117 3318 3317
4 3117 3118 3319 3318
4 3118 3119 3320 3319
4 3119 3120 3321 3320
4 3120 3121 3322 3321
4 3121 3122 3323 3322
4 3122 3123 3324 3323
4 3123 3124 3325 3324
4 3124 3125 3326 3325
4 3125 3126 3327 3326
4 3126 3127 3328 3327
4 3127 3128 3329 3328
4 3128 3129 3330 3329
4 3129 3130 3331 3330
4 3130 3131 3332 3331
4 3131 3132 3333 3332
4 3132 3133 3334 3333
4 3133 3134 3335 3334
4 3134 3135 3336 3335
4 3135 3136 3337 3336
4 3136 3137 3338 3337
4 3137 3138 3339 3338
4 3138 3139 3340 3339
4 3139 3140 3341 3340
4 3140 3141 3342 3341
4 3141 3142 3343 3342
4 3142 3143 3344 3343
4 3143 3144 3345 3344
4 3144 3145 3346 3345
4 3145 3146 3347 3346
4 3146 3147 3348 3347
4 3147 3148 3349 3348
4 3148 3149 3350 3349
4 3149 3150 3351 3350
4 3150 3151 3352 3351
4 3151 3152 3353 3352
4 3152 3153 3354 3353
4 3153 3154 3355 3354
4 3154 3155 3356 3355
4 3155 3156 3357 3356
4 3156 3157 3358 3357
4 3157 3158 3359 3358
4 3158 3159 3360 3359
4 3159 3160 3361 3360
4 3160 3161 3362 3361
4 3161 3162 3363 3362
4 3162 3163 3364 3363
4 3163 3164 3365 3364
4 3164 3165 3366 3365
4 3165 3166 3367 3366
4 3166 3167 3368 3367
4 3167 3168 3369 3368
4 3168 3169 3370 3369
4 3169 3170 3371 3370
4 3170 3171 3372 3371
4 3171 3172 3373 3372
4 3172 3173 3374 3373
4 3173 3174 3375 3374
4 3174 3175 3376 3375
4 3175 3176 3377 3376
4 3176 3177 3378 3377
4 3177 3178 3379 3378
4 3178 3179 3380 3379
4 3179 3180 3381 3380
4 3180 3181 3382 3381
4 3181 3182 3383 3382
4 3182 3183 3384 3383
4 3183 3184 3385 3384
4 3184 3185 3386 3385
4 3185 3186 3387 3386
4 3186 3187 3388 3387
4 3187 3188 3389 3388
4 3188 3189 3390 3389
4 3189 3190 3391 3390
4 3190 3191 3392 3391
4 3191 3192 3393 3392
4 3192 3193 3394 3393
4 3193 3194 3395 3394
4 3194 3195 3396 3395
4 3195 3196 3397 3396
4 3196 3197 3398 3397
4 3197 3198 3399 3398
4 3198 3199 3400 3399
4 3199 3200 3401 3400
4 3200 3201 3402 3401
4 3201 3202 3403 3402
4 3202 3203 3404 3403
4 3203 3204 3405 3404
4 3204 3205 3406 3405
4 3205 3206 3407 3406
4 3206 3207 3408 3407
4 3207 3208 3409 3408
4 3208 3209 3410 3409
4 3209 3210 3411 3410
4 3210 3211 3412 3411
4 3211 3212 3413 3412
4 3212 3213 3414 3413
4 3213 3214 3415 3414
4 3214 3215 3416 3415
4 3216 3217 3418 3417
4 3217 3218 3419 3418
4 3218 3219 3420 3419
4 3219 3220 3421 3420
4 3220 3221 3422 3421
4 3221 3222 3423 3422
4 3222 3223 3424 3423
4 3223 3224 3425 3424
4 3224 3225 3426 3425
4 3225 3226 3427 3426
4 3226 3227 3428 3427
4 3227 3228 3429 3428
4 3228 3229 3430 3429
4 3229 3230 3431 3430
4 3230 3231 3432 3431
4 3231 3232 3433 3432
4 3232 3233 3434 3433
4 3233 3234 3435 3434
4 3234 3235 3436 3435
4 3235 3236 3437 3436
4 3236 3237 3438 3437
4 3237 3238 3439 3438
4 3238 3239 3440 3439
4 3239 3240 3441 3440
4 3240 3241 3442 3441
4 3241 3242 3443 3442
4 3242 3243 3444 3443
4 3243 3244 3445 3444
4 3244 3245 3446 3445
4 3245 3246 3447 3446
4 3246 3247 3448 3447
4 3247 3248 3449 3448
4 3248 3249 3450 3449
4 3249 3250 3451 3450
4 3250 3251 3452 3451
4 3251 3252 3453 3452
4 3252 3253 3454 3453
4 3253 3254 3455 3454
4 3254 3255 3456 3455
4 3255 3256 3457 3456
4 3256 3257 3458 3457
4 3257 3258 3459 3458
4 3258 3259 3460 3459
4 3259 3260 3461 3460
4 3260 3261 3462 3461
4 3261 3262 3463 3462
4 3262 3263 3464 3463
4 3263 3264 3465 3464
4 3264 3265 3466 3465
4 3265 3266 3467 3466
4 3266 3267 3468 3467
4 3267 3268 3469 3468
4 3268 3269 3470 3469
4 3269 3270 3471 3470
4 3270 3271 3472 3471
4 3271 3272 3473 3472
4 3272 3273 3474 3473
4 3273 3274 3475 3474
4 3274 3275 3476 3475
4 3275 3276 3477 3476
4 3276 3277 3478 3477
4 3277 3278 3479 3478
4 3278 3279 3480 3479
4 3279 3280 3481 3480
4 3280 3281 3482 3481
4 3281 3282 3483 3482
4 3282 3283 3484 3483
4 3283 3284 3485 3484
4 3284 3285 3486 3485
4 3285 3286 3487 3486
4 3286 3287 3488 3487
4 3287 3288 3489 3488
4 3288 3289 3490 3489
4 3289 3290 3491 3490
4 3290 3291 3492 3491
4 3291 3292 3493 3492
4 3292 3293 3494 3493
4 3293 3294 3495 3494
4 3294 3295 3496 3495
4 3295 3296 3497 3496
4 3296 3297 3498 3497
4 3297 3298 3499 3498
4 3298 3299 3500 3499
4 3299 3300 3501 3500
4 3300 3301 3502 3501
4 3301 3302 3503 3502
4 3302 3303 3504 3503
4 3303 3304 3505 3504
4 3304 3305 3506 3505
4 3305 3306 3507 3506
4 3306 3307 3508 3507
4 3307 3308 3509 3508
4 3308 3309 3510 3509
4 3309 3310 3511 3510
4 3310 3311 3512 3511
4 3311 3312 3513 3512
4 3312 3313 3514 3513
4 3313 3314 3515 3514
4 3314 3315 3516 3515
4 3315 3316 3517 3516
4 3316 3317 3518 3517
4 3317 3318 3519 3518
4 3318 3319 3520 3519
4 3319 3320 3521 3520
4 3320 3321 3522 3521
4 3321 3322 3523 3522
4 3322 3323 3524 3523
4 3323 3324 3525 3524
4 3324 3325 3526 3525
4 3325 3326 3527 3526
4 3326 3327 3528 3527
4 3327 3328 3529 3528
4 3328 3329 3530 3529
4 3329 3330 3531 3530
4 3330 3331 3532 3531
4 3331 3332 3533 3532
4 3332 3333 3534 3533
4 3333 3334 3535 3534
4 3334 3335 3536 3535
4 3335 3336 3537 3536
4 3336 3337 3538 3537
4 3337 3338 3539 3538
4 3338 3339 3540 3539
4 3339 3340 3541 3540
4 3340 3341 3542 3541
4 3341 3342 3543 3542
4 3342 3343 3544 3543
4 3343 3344 3545 3544
4 3344 3345 3546 3545
4 3345 3346 3547 3546
4 3346 3347 3548 3547
4 3347 3348 3549 3548
4 3348 3349 3550 3549
4 3349 3350 3551 3550
4 3350 3351 3552 3551
4 3351 3352 3553 3552
4 3352 3353 3554 3553
4 3353 3354 3555 3554
4 3354 3355 3556 3555
4 3355 3356 3557 3556
4 3356 3357 3558 3557
4 3357 3358 3559 3558
4 3358 3359 3560 3559
4 3359 3360 3561 3560
4 3360 3361 3562 3561
4 3361 3362 3563 3562
4 3362 3363 3564 3563
4 3363 3364 3565 3564
4 3364 3365 3566 3565
4 3365 3366 3567 3566
4 3366 3367 3568 3567
4 3367 3368 3569 3568
4 3368 3369 3570 3569
4 3369 3370 3571 3570
4 3370 3371 3572 3571
4 3371 3372 3573 3572
4 3372 3373 3574 3573
4 3373 3374 3575 3574
4 3374 3375 3576 3575
4 3375 3376 3577 3576
4 3376 3377 3578 3577
4 3377 3378 3579 3578
4 3378 3379 3580 3579
4 3379 3380 3581 3580
4 3380 3381 3582 3581
4 3381 3382 3583 3582
4 3382 3383 3584 3583
4 3383 3384 3585 3584
4 3384 3385 3586 3585
4 3385 3386 3587 3586
4 3386 3387 3588 3587
4 3387 3388 3589 3588
4 3388 3389 3590 3589
4 3389 3390 3591 3590
4 3390 3391 3592 3591
4 3391 3392 3593 3592
4 3392 3393 3594 3593
4 3393 3394 3595 3594
4 3394 3395 3596 3595
4 3395 3396 3597 3596
4 3396 3397 3598 3597
4 3397 3398 3599 3598
4 3398 3399 3600 3599
4 3399 3400 3601 3600
4 3400 3401 3602 3601
4 3401 3402 3603 3602
4 3402 3403 3604 3603
4 3403 3404 3605 3604
4 3404 3405 3606 3605
4 3405 3406 3607 3606
4 3406 3407 3608 3607
4 3407 3408 3609 3608
4 3408 3409 3610 3609
4 3409 3410 3611 3610
4 3410 3411 3612 3611
4 3411 3412 3613 3612
4 3412 3413 3614 3613
4 3413 3414 3615 3614
4 3414 3415 3616 3615
4 3415 3416 3617 3616
4 3417 3418 3619 3618
4 3418 3419 3620 3619
4 3419 3420 3621 3620
4 3420 3421 3622 3621
4 3421 3422 3623 3622
4 3422 3423 3624 3623
4 3423 3424 3625 3624
4 3424 3425 3626 3625
4 3425 3426 3627 3626
4 3426 3427 3628 3627
4 3427 3428 3629 3628
4 3428 3429 3630 3629
4 3429 3430 3631 3630
4 3430 3431 3632 3631
4 3431 3432 3633 3632
4 3432 3433 3634 3633
4 3433 3434 3635 3634
4 3434 3435 3636 3635
4 3435 3436 3637 3636
4 3436 3437 3638 3637
4 3437 3438 3639 3638
4 3438 3439 3640 3639
4 3439 3440 3641 3640
4 3440 3441 3642 3641
4 3441 3442 3643 3642
4 3442 3443 3644 3643
4 3443 3444 3645 3644
4 3444 3445 3646 3645
4 3445 3446 3647 3646
4 3446 3447 3648 3647
4 3447 3448 3649 3648
4 3448 3449 3650 3649
4 3449 3450 3651 3650
4 3450 3451 3652 3651
4 3451 3452 3653 3652
4 3452 3453 3654 3653
4 3453 3454 3655 3654
4 3454 3455 3656 3655
4 3455 3456 3657 3656
4 3456 3457 3658 3657
4 3457 3458 3659 3658
4 3458 3459 3660 3659
4 3459 3460 3661 3660
4 3460 3461 3662 3661
4 3461 3462 3663 3662
4 3462 3463 3664 3663
4 3463 3464 3665 3664
4 3464 3465 3666 3665
4 3465 3466 3667 3666
4 3466 3467 3668 3667
4 3467 3468 3669 3668
4 3468 3469 3670 3669
4 3469 3470 3671 3670
4 3470 3471 3672 3671
4 3471 3472 3673 3672
4 3472 3473 3674 3673
4 3473 3474 3675 3674
4 3474 3475 3676 3675
4 3475 3476 3677 3676
4 3476 3477 3678 3677
4 3477 3478 3679 3678
4 3478 3479 3680 3679
4 3479 3480 3681 3680
4 3480 3481 3682 3681
4 3481 3482 3683 3682
4 3482 3483 3684 3683
4 3483 3484 3685 3684
4 3484 3485 3686 3685
4 3485 3486 3687 3686
4 3486 3487 3688 3687
4 3487 3488 3689 3688
4 3488 3489 3690 3689
4 3489 3490 3691 3690
4 3490 3491 3692 3691
4 3491 3492 3693 3692
4 3492 3493 3694 3693
4 3493 3494 3695 3694
4 3494 3495 3696 3695
4 3495 3496 3697 3696
4 3496 3497 3698 3697
4 3497 3498 3699 3698
4 3498 3499 3700 3699
4 3499 3500 3701 3700
4 3500 3501 3702 3701
4 3501 3502 3703 3702
4 3502 3503 3704 3703
4 3503 3504 3705 3704
4 3504 3505 3706 3705
4 3505 3506 3707 3706
4 3506 3507 3708 3707
4 3507 3508 3709 3708
4 3508 3509 3710 3709
4 3509 3510 3711 3710
4 3510 3511 3712 3711
4 3511 3512 3713 3712
4 3512 3513 3714 3713
4 3513 3514 3715 3714
4 3514 3515 3716 3715
4 3515 3516 3717 3716
4 3516 3517 3718 3717
4 3517 3518 3719 3718
4 3518 3519 3720 3719
4 3519 3520 3721 3720
4 3520 3521 3722 3721
4 3521 3522 3723 3722
4 3522 3523 3724 3723
4 3523 3524 3725 3724
4 3524 3525 3726 3725
4 3525 3526 3727 3726
4 3526 3527 3728 3727
4 3527 3528 3729 3728
4 3528 3529 3730 3729
4 3529 3530 3731 3730
4 3530 3531 3732 3731
4 3531 3532 3733 3732
4 3532 3533 3734 3733
4 3533 3534 3735 3734
4 3534 3535 3736 3735
4 3535 3536 3737 3736
4 3536 3537 3738 3737
4 3537 3538 3739 3738
4 3538 3539 3740 3739
4 3539 3540 3741 3740
4 3540 3541 3742 3741
4 3541 3542 3743 3742
4 3542 3543 3744 3743
4 3543 3544 3745 3744
4 3544 3545 3746 3745
4 3545 3546 3747 3746
4 3546 3547 3748 3747
4 3547 3548 3749 3748
4 3548 3549 3750 3749
4 3549 3550 3751 3750
4 3550 3551 3752 3751
4 3551 3552 3753 3752
4 3552 3553 3754 3753
4 3553 3554 3755 3754
4 3554 3555 3756 3755
4 3555 3556 3757 3756
4 3556 3557 3758 3757
4 3557 3558 3759 3758
4 3558 3559 3760 3759
4 3559 3560 3761 3760
4 3560 3561 3762 3761
4 3561 3562 3763 3762
4 3562 3563 3764 3763
4 3563 3564 3765 3764
4 3564 3565 3766 3765
4 3565 3566 3767 3766
4 3566 3567 3768 3767
4 3567 3568 3769 3768
4 3568 3569 3770 3769
4 3569 3570 3771 3770
4 3570 3571 3772 3771
4 3571 3572 3773 3772
4 3572 3573 3774 3773
4 3573 3574 3775 3774
4 3574 3575 3776 3775
4 3575 3576 3777 3776
4 3576 3577 3778 3777
4 3577 3578 3779 3778
4 3578 3579 3780 3779
4 3579 3580 3781 3780
4 3580 3581 3782 3781
4 3581 3582 3783 3782
4 3582 3583 3784 3783
4 3583 3584 3785 3784
4 3584 3585 3786 3785
4 3585 3586 3787 3786
4 3586 3587 3788 3787
4 3587 3588 3789 3788
4 3588 3589 3790 3789
4 3589 3590 3791 3790
4 3590 3591 3792 3791
4 3591 3592 3793 3792
4 3592 3593 3794 3793
4 3593 3594 3795 3794
4 3594 3595 3796 3795
4 3595 3596 3797 3796
4 3596 3597 3798 3797
4 3597 3598 3799 3798
4 3598 3599 3800 3799
4 3599 3600 3801 3800
4 3600 3601 3802 3801
4 3601 3602 3803 3802
4 3602 3603 3804 3803
4 3603 3604 3805 3804
4 3604 3605 3806 3805
4 3605 3606 3807 3806
4 3606 3607 3808 3807
4 3607 3608 3809 3808
4 3608 3609 3810 3809
4 3609 3610 3811 3810
4 3610 3611 3812 3811
4 3611 3612 3813 3812
4 3612 3613 3814 3813
4 3613 3614 3815 3814
4 3614 3615 3816 3815
4 3615 3616 3817 3816
4 3616 3617 3818 3817
4 3618 3619 3820 3819
4 3619 3620 3821 3820
4 3620 3621 3822 3821
4 3621 3622 3823 3822
4 3622 3623 3824 3823
4 3623 3624 3825 3824
4 3624 3625 3826 3825
4 3625 3626 3827 3826
4 3626 3627 3828 3827
4 3627 3628 3829 3828
4 3628 3629 3830 3829
4 3629 3630 3831 3830
4 3630 3631 3832 3831
4 3631 3632 3833 3832
4 3632 3633 3834 3833
4 3633 3634 3835 3834
4 3634 3635 3836 3835
4 3635 3636 3837 3836
4 3636 3637 3838 3837
4 3637 3638 3839 3838
4 3638 3639 3840 3839
4 3639 3640 3841 3840
4 3640 3641 3842 3841
4 3641 3642 3843 3842
4 3642 3643 3844 3843
4 3643 3644 3845 3844
4 3644 3645 3846 3845
4 3645 3646 3847 3846
4 3646 3647 3848 3847
4 3647 3648 3849 3848
4 3648 3649 3850 3849
4 3649 3650 3851 3850
4 3650 3651 3852 3851
4 3651 3652 3853 3852
4 3652 3653 3854 3853
4 3653 3654 3855 3854
4 3654 3655 3856 3855
4 3655 3656 3857 3856
4 3656 3657 3858 3857
4 3657 3658 3859 3858
4 3658 3659 3860 3859
4 3659 3660 3861 3860
4 3660 3661 3862 3861
4 3661 3662 3863 3862
4 3662 3663 3864 3863
4 3663 3664 3865 3864
4 3664 3665 3866 3865
4 3665 3666 3867 3866
4 3666 3667 3868 3867
4 3667 3668 3869 3868
4 3668 3669 3870 3869
4 3669 3670 3871 3870
4 3670 3671 3872 3871
4 3671 3672 3873 3872
4 3672 3673 3874 3873
4 3673 3674 3875 3874
4 3674 3675 3876 3875
4 3675 3676 3877 3876
4 3676 3677 3878 3877
4 3677 3678 3879 3878
4 3678 3679 3880 3879
4 3679 3680 3881 3880
4 3680 3681 3882 3881
4 3681 3682 3883 3882
4 3682 3683 3884 3883
4 3683 3684 3885 3884
4 3684 3685 3886 3885
4 3685 3686 3887 3886
4 3686 3687 3888 3887
4 3687 3688 3889 3888
4 3688 3689 3890 3889
4 3689 3690 3891 3890
4 3690 3691 3892 3891
4 3691 3692 3893 3892
4 3692 3693 3894 3893
4 3693 3694 3895 3894
4 3694 3695 3896 3895
4 3695 3696 3897 3896
4 3696 3697 3898 3897
4 3697 3698 3899 3898
4 3698 3699 3900 3899
4 3699 3700 3901 3900
4 3700 3701 3902 3901
4 3701 3702 3903 3902
4 3702 3703 3904 3903
4 3703 3704 3905 3904
4 3704 3705 3906 3905
4 3705 3706 3907 3906
4 3706 3707 3908 3907
4 3707 3708 3909 3908
4 3708 3709 3910 3909
4 3709 3710 3911 3910
4 3710 3711 3912 3911
4 3711 3712 3913 3912
4 3712 3713 3914 3913
4 3713 3714 3915 3914
4 3714 3715 3916 3915
4 3715 3716 3917 3916
4 3716 3717 3918 3917
4 3717 3718 3919 3918
4 3718 3719 3920 3919
4 3719 3720 3921 3920
4 3720 3721 3922 3921
4 3721 3722 3923 3922
4 3722 3723 3924 3923
4 3723 3724 3925 3924
4 3724 3725 3926 3925
4 3725 3726 3927 3926
4 3726 3727 3928 3927
4 3727 3728 3929 3928
4 3728 3729 3930 3929
4 3729 3730 3931 3930
4 3730 3731 3932 3931
4 3731 3732 3933 3932
4 3732 3733 3934 3933
4 3733 3734 3935 3934
4 3734 3735 3936 3935
4 3735 3736 3937 3936
4 3736 3737 3938 3937
4 3737 3738 3939 3938
4 3738 3739 3940 3939
4 3739 3740 3941 3940
4 3740 3741 3942 3941
4 3741 3742 3943 3942
4 3742 3743 3944 3943
4 3743 3744 3945 3944
4 3744 3745 3946 3945
4 3745 3746 3947 3946
4 3746 3747 3948 3947
4 3747 3748 3949 3948
4 3748 3749 3950 3949
4 3749 3750 3951 3950
4 3750 3751 3952 3951
4 3751 3752 3953 3952
4 3752 3753 3954 3953
4 3753 3754 3955 3954
4 3754 3755 3956 3955
4 3755 3756 3957 3956
4 3756 3757 3958 3957
4 3757 3758 3959 3958
4 3758 3759 3960 3959
4 3759 3760 3961 3960
4 3760 3761 3962 3961
4 3761 3762 3963 3962
4 3762 3763 3964 3963
4 3763 3764 3965 3964
4 3764 3765 3966 3965
4 3765 3766 3967 3966
4 3766 3767 3968 3967
4 3767 3768 3969 3968
4 3768 3769 3970 3969
4 3769 3770 3971 3970
4 3770 3771 3972 3971
4 3771 3772 3973 3972
4 3772 3773 3974 3973
4 3773 3774 3975 3974
4 3774 3775 3976 3975
4 3775 3776 3977 3976
4 3776 3777 3978 3977
4 3777 3778 3979 3978
4 3778 3779 3980 3979
4 3779 3780 3981 3980
4 3780 3781 3982 3981
4 3781 3782 3983 3982
4 3782 3783 3984 3983
4 3783 3784 3985 3984
4 3784 3785 3986 3985
4 3785 3786 3987 3986
4 3786 3787 3988 3987
4 3787 3788 3989 3988
4 3788 3789 3990 3989
4 3789 3790 3991 3990
4 3790 3791 3992 3991
4 3791 3792 3993 3992
4 3792 3793 3994 3993
4 3793 3794 3995 3994
4 3794 3795 3996 3995
4 3795 3796 3997 3996
4 3796 3797 3998 3997
4 3797 3798 3999 3998
4 3798 3799 4000 3999
4 3799 3800 4001 4000
4 3800 3801 4002 4001
4 3801 3802 4003 4002
4 3802 3803 4004 4003
4 3803 3804 4005 4004
4 3804 3805 4006 4005
4 3805 3806 4007 4006
4 3806 3807 4008 4007
4 3807 3808 4009 4008
4 3808 3809 4010 4009
4 3809 3810 4011 4010
4 3810 3811 4012 4011
4 3811 3812 4013 4012
4 3812 3813 4014 4013
4 3813 3814 4015 4014
4 3814 3815 4016 4015
4 3815 3816 4017 4016
4 3816 3817 4018 4017
4 3817 3818 4019 4018
4 3819 3820 4021 4020
4 3820 3821 4022 4021
4 3821 3822 4023 4022
4 3822 3823 4024 4023
4 3823 3824 4025 4024
4 3824 3825 4026 4025
4 3825 3826 4027 4026
4 3826 3827 4028 4027
4 3827 3828 4029 4028
4 3828 3829 4030 4029
4 3829 3830 4031 4030
4 3830 3831 4032 4031
4 3831 3832 4033 4032
4 3832 3833 4034 4033
4 3833 3834 4035 4034
4 3834 3835 4036 4035
4 3835 3836 4037 4036
4 3836 3837 4038 4037
4 3837 3838 4039 4038
4 3838 3839 4040 4039
4 3839 3840 4041 4040
4 3840 3841 4042 4041
4 3841 3842 4043 4042
4 3842 3843 4044 4043
4 3843 3844 4045 4044
4 3844 3845 4046 4045
4 3845 3846 4047 4046
4 3846 3847 4048 4047
4 3847 3848 4049 4048
4 3848 3849 4050 4049
4 3849 3850 4051 4050
4 3850 3851 4052 4051
4 3851 3852 4053 4052
4 3852 3853 4054 4053
4 3853 3854 4055 4054
4 3854 3855 4056 4055
4 3855 3856 4057 4056
4 3856 3857 4058 4057
4 3857 3858 4059 4058
4 3858 3859 4060 4059
4 3859 3860 4061 4060
4 3860 3861 4062 4061
4 3861 3862 4063 4062
4 3862 3863 4064 4063
4 3863 3864 4065 4064
4 3864 3865 4066 4065
4 3865 3866 4067 4066
4 3866 3867 4068 4067
4 3867 3868 4069 4068
4 3868 3869 4070 4069
4 3869 3870 4071 4070
4 3870 3871 4072 4071
4 3871 3872 4073 4072
4 3872 3873 4074 4073
4 3873 3874 4075 4074
4 3874 3875 4076 4075
4 3875 3876 4077 4076
4 3876 3877 4078 4077
4 3877 3878 4079 4078
4 3878 3879 4080 4079
4 3879 3880 4081 4080
4 3880 3881 4082 4081
4 3881 3882 4083 4082
4 3882 3883 4084 4083
4 3883 3884 4085 4084
4 3884 3885 4086 4085
4 3885 3886 4087 4086
4 3886 3887 4088 4087
4 3887 3888 4089 4088
4 3888 3889 4090 4089
4 3889 3890 4091 4090
4 3890 3891 4092 4091
4 3891 3892 4093 4092
4 3892 3893 4094 4093
4 3893 3894 4095 4094
4 3894 3895 4096 4095
4 3895 3896 4097 4096
4 3896 3897 4098 4097
4 3897 3898 4099 4098
4 3898 3899 4100 4099
4 3899 3900 4101 4100
4 3900 3901 4102 4101
4 3901 3902 4103 4102
4 3902 3903 4104 4103
4 3903 3904 4105 4104
4 3904 3905 4106 4105
4 3905 3906 4107 4106
4 3906 3907 4108 4107
4 3907 3908 4109 4108
4 3908 3909 4110 4109
4 3909 3910 4111 4110
4 3910 3911 4112 4111
4 3911 3912 4113 4112
4 3912 3913 4114 4113
4 3913 3914 4115 4114
4 3914 3915 4116 4115
4 3915 3916 4117 4116
4 3916 3917 4118 4117
4 3917 3918 4119 4118
4 3918 3919 4120 4119
4 3919 3920 4121 4120
4 3920 3921 4122 4121
4 3921 3922 4123 4122
4 3922 3923 4124 4123
4 3923 3924 4125 4124
4 3924 3925 4126 4125
4 3925 3926 4127 4126
4 3926 3927 4128 4127
4 3927 3928 4129 4128
4 3928 3929 4130 4129
4 3929 3930 4131 4130
4 3930 3931 4132 4131
4 3931 3932 4133 4132
4 3932 3933 4134 4133
4 3933 3934 4135 4134
4 3934 3935 4136 4135
4 3935 3936 4137 4136
4 3936 3937 4138 4137
4 3937 3938 4139 4138
4 3938 3939 4140 4139
4 3939 3940 4141 4140
4 3940 3941 4142 4141
4 3941 3942 4143 4142
4 3942 3943 4144 4143
4 3943 3944 4145 4144
4 3944 3945 4146 4145
4 3945 3946 4147 4146
4 3946 3947 4148 4147
4 3947 3948 4149 4148
4 3948 3949 4150 4149
4 3949 3950 4151 4150
4 3950 3951 4152 4151
4 3951 3952 4153 4152
4 3952 3953 4154 4153
4 3953 3954 4155 4154
4 3954 3955 4156 4155
4 3955 3956 4157 4156
4 3956 3957 4158 4157
4 3957 3958 4159 4158
4 3958 3959 4160 4159
4 3959 3960 4161 4160
4 3960 3961 4162 4161
4 3961 3962 4163 4162
4 3962 3963 4164 4163
4 3963 3964 4165 4164
4 3964 3965 4166 4165
4 3965 3966 4167 4166
4 3966 3967 4168 4167
4 3967 3968 4169 4168
4 3968 3969 4170 4169
4 3969 3970 4171 4170
4 3970 3971 4172 4171
4 3971 3972 4173 4172
4 3972 3973 4174 4173
4 3973 3974 4175 4174
4 3974 3975 4176 4175
4 3975 3976 4177 4176
4 3976 3977 4178 4177
4 3977 3978 4179 4178
4 3978 3979 4180 4179
4 3979 3980 4181 4180
4 3980 3981 4182 4181
4 3981 3982 4183 4182
4 3982 3983 4184 4183
4 3983 3984 4185 4184
4 3984 3985 4186 4185
4 3985 3986 4187 4186
4 3986 3987 4188 4187
4 3987 3988 4189 4188
4 3988 3989 4190 4189
4 3989 3990 4191 4190
4 3990 3991 4192 4191
4 3991 3992 4193 4192
4 3992 3993 4194 4193
4 3993 3994 4195 4194
4 3994 3995 4196 4195
4 3995 3996 4197 4196
4 3996 3997 4198 4197
4 3997 3998 4199 4198
4 3998 3999 4200 4199
4 3999 4000 4201 4200
4 4000 4001 4202 4201
4 4001 4002 4203 4202
4 4002 4003 4204 4203
4 4003 4004 4205 4204
4 4004 4005 4206 4205
4 4005 4006 4207 4206
4 4006 4007 4208 4207
4 4007 4008 4209 4208
4 4008 4009 4210 4209
4 4009 4010 4211 4210
4 4010 4011 4212 4211
4 4011 4012 4213 4212
4 4012 4013 4214 4213
4 4013 4014 4215 4214
4 4014 4015 4216 4215
4 4015 4016 4217 4216
4 4016 4017 4218 4217
4 4017 4018 4219 4218
4 4018 4019 4220 4219
CELL_TYPES 4000
9
9
9
9
9
9
9
9
9
9
9
9
9
9
9
9
9
9
9
9
9
9
9
9
9
9
9
9
9
9
9
9
9
9
9
9
9
9
9
9
9
9
9
9
9
9
9
9
9
9
9
9
9
9
9
9
9
9
9
9
9
9
9
9
9
9
9
9
9
9
9
9
9
9
9
9
9
9
9
9
9
9
9
9
9
9
9
9
9
9
9
9
9
9
9
9
9
9
9
9
9
9
9
9
9
9
9
9
9
9
9
9
9
9
9
9
9
9
9
9
9
9
9
9
9
9
9
9
9
9
9
9
9
9
9
9
9
9
9
9
9
9
9
9
9
9
9
9
9
9
9
9
9
9
9
9
9
9
9
9
9
9
9
9
9
9
9
9
9
9
9
9
9
9
9
9
9
9
9
9
9
9
9
9
9
9
9
9
9
9
9
9
9
9
9
9
9
9
9
9
9
9
9
9
9
9
9
9
9
9
9
9
9
9
9
9
9
9
9
9
9
9
9
9
9
9
9
9
9
9
9
9
9
9
9
9
9
9
9
9
9
9
9
9
9
9
9
9
9
9
9
9
9
9
9
9
9
9
9
9
9
9
9
9
9
9
9
9
9
9
9
9
9
9
9
9
9
9
9
9
9
9
9
9
9
9
9
9
9
9
9
9
9
9
9
9
9
9
9
9
9
9
9
9
9
9
9
9
9
9
9
9
9
9
9
9
9
9
9
9
9
9
9
9
9
9
9
9
9
9
9
9
9
9
9
9
9
9
9
9
9
9
9
9
9
9
9
9
9
9
9
9
9
9
9
9
9
9
9
9
9
9
9
9
9
9
9
9
9
9
9
9
9
9
9
9
9
9
9
9
9
9
9
9
9
9
9
9
9
9
9
9
9
9
9
9
9
9
9
9
9
9
9
9
9
9
9
9
9
9
9
9
9
9
9
9
9
9
9
9
9
9
9
9
9
9
9
9
9
9
9
9
9
9
9
9
9
9
9
9
9
9
9
9
9
9
9
9
9
9
9
9
9
9
9
9
9
9
9
9
9
9
9
9
9
9
9
9
9
9
9
9
9
9
9
9
9
9
9
9
9
9
9
9
9
9
9
9
9
9
9
9
9
9
9
9
9
9
9
9
9
9
9
9
9
9
9
9
9
9
9
9
9
9
9
9
9
9
9
9
9
9
9
9
9
9
9
9
9
9
9
9
9
9
9
9
9
9
9
9
9
9
9
9
9
9
9
9
9
9
9
9
9
9
9
9
9
9
9
9
9
9
9
9
9
9
9
9
9
9
9
9
9
9
9
9
9
9
9
9
9
9
9
9
9
9
9
9
9
9
9
9
9
9
9
9
9
9
9
9
9
9
9
9
9
9
9
9
9
9
9
9
9
9
9
9
9
9
9
9
9
9
9
9
9
9
9
9
9
9
9
9
9
9
9
9
9
9
9
9
9
9
9
9
9
9
9
9
9
9
9
9
9
9
9
9
9
9
9
9
9
9
9
9
9
9
9
9
9
9
9
9
9
9
9
9
9
9
9
9
9
9
9
9
9
9
9
9
9
9
9
9
9
9
9
9
9
9
9
9
9
9
9
9
9
9
9
9
9
9
9
9
9
9
9
9
9
9
9
9
9
9
9
9
9
9
9
9
9
9
9
9
9
9
9
9
9
9
9
9
9
9
9
9
9
9
9
9
9
9
9
9
9
9
9
9
9
9
9
9
9
9
9
9
9
9
9
9
9
9
9
9
9
9
9
9
9
9
9
9
9
9
9
9
9
9
9
9
9
9
9
9
9
9
9
9
9
9
9
9
9
9
9
9
9
9
9
9
9
9
9
9
9
9
9
9
9
9
9
9
9
9
9
9
9
9
9
9
9
9
9
9
9
9
9
9
9
9
9
9
9
9
9
9
9
9
9
9
9
9
9
9
9
9
9
9
9
9
9
9
9
9
9
9
9
9
9
9
9
9
9
9
9
9
9
9
9
9
9
9
9
9
9
9
9
9
9
9
9
9
9
9
9
9
9
9
9
9
9
9
9
9
9
9
9
9
9
9
9
9
9
9
9
9
9
9
9
9
9
9
9
9
9
9
9
9
9
9
9
9
9
9
9
9
9
9
9
9
9
9
9
9
9
9
9
9
9
9
9
9
9
9
9
9
9
9
9
9
9
9
9
9
9
9
9
9
9
9
9
9
9
9
9
9
9
9
9
9
9
9
9
9
9
9
9
9
9
9
9
9
9
9
9
9
9
9
9
9
9
9
9
9
9
9
9
9
9
9
9
9
9
9
9
9
9
9
9
9
9
9
9
9
9
9
9
9
9
9
9
9
9
9
9
9
9
9
9
9
9
9
9
9
9
9
9
9
9
9
9
9
9
9
9
9
9
9
9
9
9
9
9
9
9
9
9
9
9
9
9
9
9
9
9
9
9
9
9
9
9
9
9
9
9
9
9
9
9
9
9
9
9
9
9
9
9
9
9
9
9
9
9
9
9
9
9
9
9
9
9
9
9
9
9
9
9
9
9
9
9
9
9
9
9
9
9
9
9
9
9
9
9
9
9
9
9
9
9
9
9
9
9
9
9
9
9
9
9
9
9
9
9
9
9
9
9
9
9
9
9
9
9
9
9
9
9
9
9
9
9
9
9
9
9
9
9
9
9
9
9
9
9
9
9
9
9
9
9
9
9
9
9
9
9
9
9
9
9
9
9
9
9
9
9
9
9
9
9
9
9
9
9
9
9
9
9
9
9
9
9
9
9
9
9
9
9
9
9
9
9
9
9
9
9
9
9
9
9
9
9
9
9
9
9
9
9
9
9
9
9
9
9
9
9
9
9
9
9
9
9
9
9
9
9
9
9
9
9
9
9
9
9
9
9
9
9
9
9
9
9
9
9
9
9
9
9
9
9
9
9
9
9
9
9
9
9
9
9
9
9
9
9
9
9
9
9
9
9
9
9
9
9
9
9
9
9
9
9
9
9
9
9
9
9
9
9
9
9
9
9
9
9
9
9
9
9
9
9
9
9
9
9
9
9
9
9
9
9
9
9
9
9
9
9
9
9
9
9
9
9
9
9
9
9
9
9
9
9
9
9
9
9
9
9
9
9
9
9
9
9
9
9
9
9
9
9
9
9
9
9
9
9
9
9
9
9
9
9
9
9
9
9
9
9
9
9
9
9
9
9
9
9
9
9
9
9
9
9
9
9
9
9
9
9
9
9
9
9
9
9
9
9
9
9
9
9
9
9
9
9
9
9
9
9
9
9
9
9
9
9
9
9
9
9
9
9
9
9
9
9
9
9
9
9
9
9
9
9
9
9
9
9
9
9
9
9
9
9
9
9
9
9
9
9
9
9
9
9
9
9
9
9
9
9
9
9
9
9
9
9
9
9
9
9
9
9
9
9
9
9
9
9
9
9
9
9
9
9
9
9
9
9
9
9
9
9
9
9
9
9
9
9
9
9
9
9
9
9
9
9
9
9
9
9
9
9
9
9
9
9
9
9
9
9
9
9
9
9
9
9
9
9
9
9
9
9
9
9
9
9
9
9
9
9
9
9
9
9
9
9
9
9
9
9
9
9
9
9
9
9
9
9
9
9
9
9
9
9
9
9
9
9
9
9
9
9
9
9
9
9
9
9
9
9
9
9
9
9
9
9
9
9
9
9
9
9
9
9
9
9
9
9
9
9
9
9
9
9
9
9
9
9
9
9
9
9
9
9
9
9
9
9
9
9
9
9
9
9
9
9
9
9
9
9
9
9
9
9
9
9
9
9
9
9
9
9
9
9
9
9
9
9
9
9
9
9
9
9
9
9
9
9
9
9
9
9
9
9
9
9
9
9
9
9
9
9
9
9
9
9
9
9
9
9
9
9
9
9
9
9
9
9
9
9
9
9
9
9
9
9
9
9
9
9
9
9
9
9
9
9
9
9
9
9
9
9
9
9
9
9
9
9
9
9
9
9
9
9
9
9
9
9
9
9
9
9
9
9
9
9
9
9
9
9
9
9
9
9
9
9
9
9
9
9
9
9
9
9
9
9
9
9
9
9
9
9
9
9
9
9
9
9
9
9
9
9
9
9
9
9
9
9
9
9
9
9
9
9
9
9
9
9
9
9
9
9
9
9
9
9
9
9
9
9
9
9
9
9
9
9
9
9
9
9
9
9
9
9
9
9
9
9
9
9
9
9
9
9
9
9
9
9
9
9
9
9
9
9
9
9
9
9
9
9
9
9
9
9
9
9
9
9
9
9
9
9
9
9
9
9
9
9
9
9
9
9
9
9
9
9
9
9
9
9
9
9
9
9
9
9
9
9
9
9
9
9
9
9
9
9
9
9
9
9
9
9
9
9
9
9
9
9
9
9
9
9
9
9
9
9
9
9
9
9
9
9
9
9
9
9
9
9
9
9
9
9
9
9
9
9
9
9
9
9
9
9
9
9
9
9
9
9
9
9
9
9
9
9
9
9
9
9
9
9
9
9
9
9
9
9
9
9
9
9
9
9
9
9
9
9
9
9
9
9
9
9
9
9
9
9
9
9
9
9
9
9
9
9
9
9
9
9
9
9
9
9
9
9
9
9
9
9
9
9
9
9
9
9
9
9
9
9
9
9
9
9
9
9
9
9
9
9
9
9
9
9
9
9
9
9
9
9
9
9
9
9
9
9
9
9
9
9
9
9
9
9
9
9
9
9
9
9
9
9
9
9
9
9
9
9
9
9
9
9
9
9
9
9
9
9
9
9
9
9
9
9
9
9
9
9
9
9
9
9
9
9
9
9
9
9
9
9
9
9
9
9
9
9
9
9
9
9
9
9
9
9
9
9
9
9
9
9
9
9
9
9
9
9
9
9
9
9
9
9
9
9
9
9
9
9
9
9
9
9
9
9
9
9
9
9
9
9
9
9
9
9
9
9
9
9
9
9
9
9
9
9
9
9
9
9
9
9
9
9
9
9
9
9
9
9
9
9
9
9
9
9
9
9
9
9
9
9
9
9
9
9
9
9
9
9
9
9
9
9
9
9
9
9
9
9
9
9
9
9
9
9
9
9
9
9
9
9
9
9
9
9
9
9
9
9
9
9
9
9
9
9
9
9
9
9
9
9
9
9
9
9
9
9
9
9
9
9
9
9
9
9
9
9
9
9
9
9
9
9
9
9
9
9
9
9
9
9
9
9
9
9
9
9
9
9
9
9
9
9
9
9
9
9
9
9
9
9
9
9
9
9
9
9
9
9
9
9
9
9
9
9
9
9
9
9
9
9
9
9
9
9
9
9
9
9
9
9
9
9
9
9
9
9
9
9
9
9
9
9
9
9
9
9
9
9
9
9
9
9
9
9
9
9
9
9
9
9
9
9
9
9
9
9
9
9
9
9
9
9
9
9
9
9
9
9
9
9
9
9
9
9
9
9
9
9
9
9
9
9
9
9
9
9
9
9
9
9
9
9
9
9
9
9
9
9
9
9
9
9
9
9
9
9
9
9
9
9
9
9
9
9
9
9
9
9
9
9
9
9
9
9
9
9
9
9
9
9
9
9
9
9
9
9
9
9
9
9
9
9
9
9
9
9
9
9
9
9
9
9
9
9
9
9
9
9
9
9
9
9
9
9
9
9
9
9
9
9
9
9
9
9
9
9
9
9
9
9
9
9
9
9
9
9
9
9
9
9
9
9
9
9
9
9
9
9
9
9
9
9
9
9
9
9
9
9
9
9
9
9
9
9
9
9
9
9
9
9
9
9
9
9
9
9
9
9
9
9
9
9
9
9
9
9
9
9
9
9
9
9
9
9
9
9
9
9
9
9
9
9
9
9
9
9
9
9
9
9
9
9
9
9
9
9
9
9
9
9
9
9
9
9
9
9
9
9
9
9
9
9
9
9
9
9
9
9
9
9
9
9
9
9
9
9
9
9
9
9
9
9
9
9
9
9
9
9
9
9
9
9
9
9
9
9
9
9
9
9
9
9
9
9
9
9
9
9
9
9
9
9
9
9
9
9
9
9
9
9
9
9
9
9
9
9
9
9
9
9
9
9
9
9
9
9
9
9
9
9
9
9
9
9
9
9
9
9
9
9
9
9
9
9
9
9
9
9
9
9
9
9
9
9
9
9
9
9
9
9
9
9
9
9
9
9
9
9
9
9
9
9
9
9
9
9
9
9
9
9
9
9
9
9
9
9
9
9
9
9
9
9
9
9
9
9
9
9
9
9
9
9
9
9
9
9
9
9
9
9
9
9
9
9
9
9
9
9
9
9
9
9
9
9
9
9
9
9
9
9
9
9
9
9
9
9
9
9
9
9
9
9
9
9
9
9
9
9
9
9
9
9
9
9
9
9
9
9
9
9
9
9
9
9
9
9
9
9
9
9
9
9
9
9
9
9
9
9
9
9
9
9
9
9
9
9
9
9
9
9
9
9
9
9
9
9
9
9
9
9
9
9
9
9
9
9
9
9
9
9
9
9
9
9
9
9
9
9
9
9
9
9
9
9
9
9
9
9
9
9
9
9
9
9
9
9
9
9
9
9
9
9
9
9
9
9
9
9
9
9
9
9
9
9
9
9
9
9
9
9
9
9
9
9
9
9
9
9
9
9
9
9
9
9
9
9
9
9
9
9
9
9
9
9
9
9
9
9
9
9
9
9
9
9
9
9
9
9
9
9
9
9
9
9
9
9
9
9
9
9
9
9
9
9
9
9
9
9
9
9
9
9
9
9
9
9
9
9
9
9
9
9
9
9
9
9
9
9
9
9
9
9
9
9
9
9
9
9
9
9
9
9
9
9
9
9
9
9
9
9
9
9
9
9
9
9
9
9
9
9
9
9
9
9
9
9
9
9
9
9
9
9
9
9
9
9
9
9
9
9
9
9
9
9
9
9
9
9
9
9
9
9
9
9
9
9
9
9
9
9
9
9
9
9
9
9
9
9
9
9
9
9
9
9
9
9
9
9
9
9
9
9
9
9
9
9
9
9
9
9
9
9
9
9
9
9
9
9
9
9
9
9
9
9
9
9
9
9
9
9
9
9
9
9
9
9
9
9
9
9
9
9
9
9
9
9
9
9
9
9
9
9
9
9
9
9
9
9
9
9
9
9
9
9
9
9
9
9
9
9
9
9
9
9
9
9
9
9
9
9
9
9
9
9
9
9
9
9
9
9
9
9
9
9
9
9
9
9
9
9
9
9
9
9
9
9
9
9
9
9
9
9
9
9
9
9
9
9
9
9
9
9
9
9
9
9
9
9
9
9
9
9
9
9
9
9
9
9
9
9
9
9
9
9
9
9
9
9
9
9
9
9
9
9
9
9
9
9
9
9
9
9
9
9
9
9
9
9
9
9
9
9
9
9
9
9
9
9
9
9
9
9
9
9
9
9
9
9
9
9
9
9
9
9
9
9
9
9
9
9
9
9
9
9
9
9
9
9
9
9
9
9
9
9
9
9
9
9
9
9
9
9
9
9
9
9
9
9
9
9
9
9
9
9
9
9
9
9
9
9
9
9
9
9
9
9
9
9
9
9
9
9
9
9
9
9
9
9
9
9
9
9
9
9
9
9
9
9
9
9
9
9
9
9
9
9
9
9
9
9
9
9
9
9
9
9
9
9
9
9
9
9
9
9
9
9
9
9
9
9
9
9
9
9
9
9
9
9
9
9
9
9
9
9
9
9
9
9
9
9
9
9
9
9
9
9
9
9
9
9
9
9
9
9
9
9
9
9
9
9
9
9
9
9
9
9
9
9
9
9
9
9
9
9
9
9
9
9
9
9
9
9
9
9
9
9
9
9
9
9
9
9
9
9
9
9
9
9
9
9
9
9
9
9
9
9
9
9
9
9
9
9
9
9
9
9
9
9
9
9
9
9
9
9
9
9
9
9
9
9
9
9
9
9
9
9
9
9
9
9
9
9
9
9
9
9
9
9
9
9
9
9
9
9
9
9
9
9
9
9
9
9
9
9
9
9
9
9
9
9
9
9
9
9
9
9
9
9
9
9
9
9
9
9
9
9
9
9
9
9
9
9
9
9
9
9
9
9
9
9
9
9
9
9
9
9
9
9
9
9
9
9
9
9
9
9
9
9
9
9
9
9
9
9
9
9
9
9
9
9
9
9
9
9
9
9
9
9
9
9
9
9
9
9
9
9
9
9
9
9
9
9
9
9
9
9
9
9
9
9
9
9
9
9
9
9
9
9
9
9
9
9
9
9
9
9
9
9
9
9
9
9
9
9
9
9
9
9
9
9
9
9
9
9
9
9
9
9
9
9
9
9
9
9
9
9
9
9
9
9
9
9
9
9
9
9
9
9
9
9
9
9
9
9
9
9
9
9
9
9
9
9
9
9
9
9
9
9
9
9
9
9
9
9
9
9
9
9
9
9
9
9
9
9
9
9
9
9
9
9
9
9
9
9
9
9
9
9
9
9
9
9
9
9
9
9
9
9
9
9
9
9
9
9
9
9
9
9
9
9
9
9
9
9
9
9
9
9
9
9
9
9
9
9
9
9
9
9
9
9
9
9
9
9
9
9
9
9
9
9
9
9
9
9
9
9
9
9
9
9
9
9
9
9
9
9
9
9
9
9
9
9
9
9
9
9
9
9
9
9
9
9
9
9
9
9
9
9
9
9
9
9
9
9
9
9
9
9
9
9
9
9
9
9
9
9
9
9
9
9
9
9
9
9
9
9
9
9
9
9
9
9
9
9
9
9
9
9
9
9
9
9
9
9
9
9
9
9
9
9
9
9
9
9
9
9
9
9
9
9
9
9
9
9
9
9
9
9
9
9
9
9
9
9
9
9
9
9
9
9
9
9
9
9
9
9
9
9
9
9
9
9
9
9
9
9
9
9
9
9
9
9
9
9
9
9
9
9
9
9
9
9
9
9
9
9
9
9
9
9
9
9
9
9
9
9
9
9
9
9
9
9
9
9
9
9
9
9
9
9
9
9
9
9
9
9
9
9
9
9
9
9
9
9
9
9
9
9
9
9
9
9
9
9
9
9
9
9
9
9
9
9
9
9
9
9
9
9
9
POINT_DATA 4221
VECTORS Displacements double
0 0 0.0
-4.78416e-07 7.01059e-09 0.0
-1.62638e-08 7.20416e-08 0.0
3.99754e-07 -4.85877e-07 0.0
-2.38304e-07 -5.7874e-07 0.0
-2.64981e-07 -1.46273e-07 0.0
2.29959e-07 -4.91491e-08 0.0
7.7513e-08 -3.05435e-07 0.0
-1.75365e-07 -9.30628e-08 0.0
-1.79036e-07 1.56066e-07 0.0
3.00149e-07 -3.16429e-07 0.0
3.48329e-07 -3.10527e-07 0.0
-3.73905e-07 3.67192e-07 0.0
-2.32331e-08 7.16613e-07 0.0
3.57177e-07 5.41584e-07 0.0
-1.50476e-07 8.04131e-08 0.0
-2.26898e-08 9.95739e-08 0.0
6.83713e-08 2.26622e-07 0.0
5.62182e-08 -1.14068e-07 0.0
1.95729e-07 8.41209e-08 0.0
-3.0844e-07 5.38455e-07 0.0
-2.1408e-07 3.23065e-07 0.0
3.82033e-07 -2.54581e-07 0.0
2.8867e-08 -5.41911e-07 0.0
-3.73984e-07 -1.41741e-07 0.0
2.80121e-08 8.96433e-08 0.0
3.12258e-07 -2.09243e-07 0.0
-2.63674e-07 -9.68731e-08 0.0
-4.26792e-07 5.03625e-08 0.0
3.25069e-07 -4.24191e-07 0.0
2.36224e-07 -8.13007e-07 0.0
-3.27323e-07 -4.12865e-07 0.0
-8.37554e-08 2.50365e-07 0.0
1.97601e-07 1.38265e-07 0.0
1.32872e-07 -1.93599e-07 0.0
-1.31152e-07 1.37432e-07 0.0
-8.87536e-08 2.66657e-07 0.0
4.36046e-07 3.62563e-08 0.0
6.60787e-08 2.81914e-07 0.0
-4.16589e-07 6.74022e-07 0.0
1.33828e-07 6.3734e-07 0.0
1.60092e-07 2.89669e-08 0.0
-4.95514e-08 -4.56164e-07 0.0
4.63678e-08 -6.38964e-08 0.0
-1.25016e-07 1.86941e-07 0.0
1.88727e-07 3.31656e-08 0.0
1.10374e-07 2.88692e-07 0.0
-4.83103e-07 4.15158e-07 0.0
2.51677e-08 2.53546e-08 0.0
3.90523e-07 -5.43972e-07 0.0
-2.0788e-07 -5.77721e-07 0.0
-4.06582e-07 -1.25159e-09 0.0
1.41251e-07 -1.07334e-07 0.0
2.69018e-07 -5.65223e-07 0.0
-3.69027e-07 -3.83243e-07 0.0
-1.28868e-07 -1.97802e-07 0.0
4.81637e-07 -3.06462e-07 0.0
2.22458e-08 -2.20935e-07 0.0
-2.52737e-07 4.27091e-07 0.0
-2.82636e-08 7.95668e-07 0.0
1.7597e-07 1.31997e-07 0.0
1.83989e-07 -2.4155e-07 0.0
-2.35849e-07 7.01522e-08 0.0
2.34147e-08 1.38728e-07 0.0
4.02388e-07 1.43265e-07 0.0
-1.82492e-07 3.1941e-07 0.0
-2.17263e-07 5.30985e-07 0.0
1.70096e-07 3.85252e-07 0.0
8.9873e-08 -2.55506e-07 0.0
9.39004e-08 -2.83578e-07 0.0
-1.89421e-07 3.16986e-07 0.0
-1.98933e-07 2.88588e-07 0.0
3.13714e-07 -9.59063e-08 0.0
-1.39674e-07 -1.89559e-07 0.0
-4.55815e-07 -2.36861e-07 0.0
2.71299e-07 -4.93941e-07 0.0
2.89991e-07 -7.45962e-07 0.0
-3.61102e-07 -2.64167e-07 0.0
-2.84893e-07 3.16883e-07 0.0
3.48326e-07 -9.31459e-08 0.0
1.65783e-07 -4.61977e-07 0.0
-3.66582e-07 -1.49881e-07 0.0
1.28479e-07 1.26955e-07 0.0
3.31709e-07 9.83848e-08 0.0
-1.28774e-07 1.50681e-07 0.0
-1.57183e-07 5.93791e-07 0.0
-3.3564e-08 4.38429e-07 0.0
3.00765e-07 -3.21414e-07 0.0
1.52249e-07 -2.40283e-07 0.0
-3.20366e-07 2.7654e-07 0.0
1.73965e-07 4.85722e-07 0.0
2.22204e-07 4.38623e-07 0.0
-2.52452e-07 2.67028e-07 0.0
-6.29537e-08 3.23782e-07 0.0
1.94828e-08 -1.18209e-08 0.0
1.35808e-07 -5.69006e-07 0.0
2.148e-08 -2.36255e-07 0.0
-4.59202e-07 1.88106e-07 0.0
3.43844e-08 -1.18431e-07 0.0
3.7305e-07 -5.48407e-07 0.0
-3.08509e-07 -5.15967e-07 0.0
-2.38275e-07 -1.69747e-07 0.0
3.94843e-07 -1.93167e-07 0.0
1.07097e-07 -2.23177e-07 0.0
-4.67301e-07 2.97508e-07 0.0
-7.37224e-08 3.23756e-07 0.0
4.51834e-07 -3.77284e-07 0.0
-2.64327e-08 -5.57768e-07 0.0
-2.32853e-07 -1.83283e-08 0.0
2.27791e-07 4.07425e-07 0.0
1.50705e-07 3.23855e-07 0.0
-4.87461e-08 3.68665e-07 0.0
-1.21969e-07 6.50426e-07 0.0
8.47633e-09 2.43891e-07 0.0
3.85665e-07 -2.23503e-07 0.0
-9.8782e-08 8.16752e-08 0.0
-3.50024e-07 4.21118e-07 0.0
2.0977e-07 3.63713e-07 0.0
4.25811e-08 -1.25255e-07 0.0
-1.30965e-07 -3.7042e-07 0.0
-6.39262e-08 -7.05782e-08 0.0
-3.34167e-08 -2.59701e-07 0.0
2.75082e-07 -3.86256e-07 0.0
-2.23149e-07 1.27727e-07 0.0
-4.70179e-07 2.02321e-07 0.0
3.56296e-07 -3.26574e-07 0.0
2.22516e-07 -7.61308e-07 0.0
-4.04877e-07 -4.51205e-07 0.0
-4.82818e-08 7.78153e-08 0.0
3.89697e-07 -7.16489e-08 0.0
-5.21015e-08 -3.7886e-08 0.0
-4.01322e-07 3.43059e-07 0.0
2.3721e-07 1.27679e-07 0.0
4.01228e-07 -2.86106e-07 0.0
-1.5923e-07 -6.72386e-08 0.0
-8.32712e-08 6.3038e-07 0.0
1.01961e-07 7.70866e-07 0.0
8.41041e-08 2.53678e-07 0.0
2.2529e-08 1.53942e-07 0.0
-2.33107e-07 2.05329e-07 0.0
1.2206e-07 -1.52531e-07 0.0
3.1272e-07 -2.29384e-07 0.0
-3.23124e-07 1.0038e-07 0.0
-2.03976e-07 3.37378e-07 0.0
1.98055e-07 6.01314e-08 0.0
4.83552e-08 -5.37475e-07 0.0
-4.86628e-08 -3.64253e-07 0.0
-2.38893e-07 1.04431e-07 0.0
6.10477e-08 -1.43249e-07 0.0
2.49589e-07 -2.37231e-07 0.0
-4.86539e-07 -3.69438e-08 0.0
-1.89897e-07 -2.50161e-07 0.0
5.51757e-07 -7.1043e-07 0.0
1.90114e-08 -7.33832e-07 0.0
-3.52257e-07 1.03121e-07 0.0
1.33407e-07 6.00746e-07 0.0
3.60699e-07 2.65127e-07 0.0
-1.70173e-07 2.92654e-07 0.0
-2.36692e-07 4.35037e-07 0.0
3.63816e-07 1.4565e-07 0.0
1.37676e-07 -1.06475e-07 0.0
-1.9411e-07 1.46531e-07 0.0
-5.9308e-08 6.161e-07 0.0
-1.39934e-08 2.65192e-07 0.0
2.44244e-07 -3.06339e-07 0.0
-1.72875e-08 -9.6776e-08 0.0
-2.9014e-07 1.43066e-07 0.0
2.68205e-07 1.31556e-07 0.0
8.48815e-08 1.11723e-07 0.0
-3.9837e-07 1.41622e-07 0.0
-8.97441e-08 1.05331e-07 0.0
1.31077e-07 -5.36372e-07 0.0
1.30314e-07 -9.60303e-07 0.0
-1.78183e-07 -3.3524e-07 0.0
-3.00509e-07 7.67868e-08 0.0
3.31194e-07 -1.78657e-07 0.0
1.1233e-07 -2.14647e-07 0.0
-4.84744e-07 -2.27216e-08 0.0
1.89841e-07 -5.81177e-08 0.0
4.93107e-07 -2.92862e-07 0.0
-1.96144e-07 1.03976e-08 0.0
-2.96458e-07 7.47095e-07 0.0
2.34679e-07 5.90356e-07 0.0
2.5468e-07 -3.60539e-08 0.0
-2.34214e-07 -2.18275e-08 0.0
-3.21125e-08 1.73296e-07 0.0
2.8752e-07 1.40879e-07 0.0
-2.40682e-08 7.03108e-08 0.0
-8.93415e-08 3.69184e-07 0.0
-1.45407e-07 5.49471e-07 0.0
4.98549e-08 -1.01168e-07 0.0
3.57236e-07 -4.31881e-07 0.0
-2.80491e-07 -2.86095e-08 0.0
-2.97944e-07 2.36584e-07 0.0
2.42345e-07 9.97524e-08 0.0
-9.75215e-08 -4.25613e-07 0.0
-1.43455e-07 -5.90575e-07 0.0
6.01972e-08 -3.46837e-07 0.0
4.98392e-08 -3.75522e-07 0.0
-4.68465e-08 -1.47988e-07 0.0
-2.36725e-07 2.62997e-08 0.0
0 0 0.0
1.89937e-07 -9.77837e-07 0.0
-4.00214e-07 6.91926e-07 0.0
-1.99234e-08 9.10868e-07 0.0
4.01937e-07 1.60228e-07 0.0
-4.7475e-08 1.859e-07 0.0
-1.99362e-07 7.46787e-07 0.0
5.16419e-08 2.91934e-07 0.0
8.29493e-08 -1.09605e-07 0.0
-1.40254e-07 2.15376e-07 0.0
-2.6603e-07 4.91428e-07 0.0
2.63276e-07 1.03321e-07 0.0
2.74852e-07 -8.99816e-07 0.0
-4.18023e-07 -6.83696e-07 0.0
-1.99836e-07 -1.24124e-07 0.0
1.10761e-07 -6.87215e-07 0.0
-4.23659e-08 -4.01717e-07 0.0
4.08922e-08 5.78835e-08 0.0
1.53634e-08 -2.65182e-07 0.0
1.34497e-07 -2.79519e-07 0.0
1.57688e-07 -6.12223e-07 0.0
-2.95909e-07 -3.13348e-07 0.0
-1.60749e-07 6.66107e-07 0.0
3.83447e-07 2.42554e-07 0.0
2.44801e-07 -2.05767e-07 0.0
-2.16584e-07 4.03441e-07 0.0
-4.87477e-08 4.69376e-07 0.0
2.81246e-07 -1.45697e-07 0.0
-1.68069e-07 1.1045e-07 0.0
-3.41055e-07 1.14841e-06 0.0
2.96331e-07 8.68118e-07 0.0
3.09954e-07 -7.44571e-08 0.0
-1.94236e-07 1.69213e-07 0.0
-2.44263e-07 3.49278e-07 0.0
4.71662e-09 -9.95892e-08 0.0
1.34804e-07 -3.33681e-07 0.0
-1.67366e-07 -2.458e-07 0.0
-1.69367e-07 -3.63637e-08 0.0
3.07422e-07 -6.56568e-07 0.0
-3.64746e-08 -1.18266e-06 0.0
-4.2369e-07 -2.47024e-07 0.0
-8.70517e-09 1.3326e-07 0.0
1.63468e-07 -1.77353e-07 0.0
1.94347e-07 5.56172e-08 0.0
8.57869e-08 -1.50493e-07 0.0
-1.24896e-07 -2.24891e-07 0.0
1.71929e-07 -2.66039e-07 0.0
4.24015e-08 -6.66706e-07 0.0
-3.61836e-07 2.66297e-07 0.0
5.23382e-08 9.33193e-07 0.0
4.44645e-07 9.58548e-08 0.0
4.49721e-08 1.07172e-07 0.0
-3.60354e-07 8.79301e-07 0.0
6.54152e-08 7.75754e-07 0.0
3.04063e-07 1.41063e-07 0.0
-2.32081e-07 4.35845e-07 0.0
-1.11903e-07 8.44811e-07 0.0
3.05879e-07 -2.14072e-07 0.0
-1.27181e-11 -8.29501e-07 0.0
-3.35307e-07 -2.91155e-07 0.0
-2.96085e-07 -6.61418e-08 0.0
1.16412e-07 -8.56387e-08 0.0
2.35295e-07 -3.22032e-07 0.0
-1.90009e-07 -1.9119e-07 0.0
-4.42064e-09 -5.53461e-09 0.0
2.49277e-07 -8.16939e-07 0.0
-1.76616e-07 -7.88765e-07 0.0
-2.07836e-07 6.67044e-08 0.0
7.74365e-08 -1.88002e-08 0.0
2.14216e-07 -1.69543e-07 0.0
2.26714e-07 -2.81158e-07 0.0
-1.91513e-07 -2.55525e-07 0.0
-1.79224e-07 3.80692e-07 0.0
2.89081e-07 1.78078e-07 0.0
-1.22937e-09 1.05515e-07 0.0
-2.33408e-07 1.15864e-06 0.0
2.57842e-07 9.00129e-07 0.0
3.58855e-07 -1.8301e-07 0.0
-2.46555e-07 1.0924e-07 0.0
-4.0518e-07 7.48241e-07 0.0
2.21744e-07 3.14982e-07 0.0
1.91086e-07 -2.71149e-07 0.0
-2.76048e-07 1.70398e-07 0.0
-5.84286e-09 1.42825e-07 0.0
1.22663e-07 -7.5157e-07 0.0
-1.24961e-07 -6.26888e-07 0.0
-2.71593e-07 -6.62199e-08 0.0
-1.40567e-07 1.48626e-07 0.0
3.70403e-07 -8.10485e-08 0.0
1.84657e-07 -7.0735e-07 0.0
-2.76946e-07 -4.05726e-07 0.0
3.41227e-08 -3.32669e-07 0.0
7.65703e-08 -8.85082e-07 0.0
-1.26537e-07 -2.50265e-07 0.0
-3.41324e-08 3.19287e-07 0.0
7.33395e-08 2.83612e-07 0.0
3.15696e-07 2.11221e-07 0.0
9.52787e-08 -1.09643e-07 0.0
-3.76969e-07 5.219e-07 0.0
4.04416e-08 9.93412e-07 0.0
3.91366e-07 1.4666e-07 0.0
-8.87242e-08 2.5465e-07 0.0
-2.08068e-07 8.32928e-07 0.0
2.27039e-07 1.78666e-08 0.0
9.03679e-08 -5.8264e-07 0.0
-4.76694e-07 2.39861e-07 0.0
-1.95919e-07 8.05689e-07 0.0
3.97237e-07 8.15833e-08 0.0
8.42868e-08 -3.26788e-07 0.0
-2.04624e-07 -1.06231e-08 0.0
-1.64635e-08 -4.46704e-07 0.0
-3.52781e-09 -9.05803e-07 0.0
-6.76585e-08 -6.15422e-07 0.0
-2.23766e-07 -2.52364e-07 0.0
1.67529e-08 2.45041e-08 0.0
4.20132e-07 -4.5677e-07 0.0
-5.49129e-08 -7.29639e-07 0.0
-2.77169e-07 1.20674e-07 0.0
9.77674e-08 1.4608e-07 0.0
1.24381e-07 -6.84845e-08 0.0
1.07538e-07 3.82322e-07 0.0
-2.73105e-08 3.80416e-07 0.0
3.93664e-08 3.44889e-07 0.0
2.91666e-07 -7.02375e-08 0.0
-2.19469e-07 -1.43186e-07 0.0
-3.94637e-07 1.02814e-06 0.0
2.87728e-07 8.60364e-07 0.0
3.33542e-07 -7.50095e-08 0.0
-2.22257e-07 3.88953e-07 0.0
-1.9496e-07 5.34496e-07 0.0
2.18135e-07 -3.24245e-07 0.0
-7.42544e-08 -4.8764e-07 0.0
-4.25307e-07 3.29939e-07 0.0
1.15305e-07 2.8031e-07 0.0
3.35329e-07 -7.2145e-07 0.0
-9.41392e-08 -7.62323e-07 0.0
-2.23165e-07 -4.70461e-07 0.0
-1.25492e-07 -5.84607e-07 0.0
8.55025e-08 -4.17242e-07 0.0
7.54216e-08 -2.63077e-07 0.0
-1.54665e-07 1.37958e-07 0.0
2.02375e-07 2.57225e-07 0.0
3.14302e-07 -5.10862e-07 0.0
-2.14203e-07 -2.66884e-07 0.0
-1.73657e-07 5.30893e-07 0.0
1.34221e-07 2.90914e-07 0.0
2.31845e-07 1.32355e-07 0.0
9.01482e-08 1.75161e-07 0.0
-2.54429e-07 3.30973e-07 0.0
5.39832e-08 4.9469e-07 0.0
2.02223e-07 -1.39015e-08 0.0
-3.64975e-07 5.5103e-07 0.0
-1.20852e-07 1.43526e-06 0.0
4.74901e-07 3.03418e-07 0.0
1.50567e-07 -5.04468e-07 0.0
-3.91966e-07 -3.30143e-08 0.0
-1.77247e-07 -2.22141e-07 0.0
1.8521e-07 -8.45181e-07 0.0
-1.95058e-07 -5.91086e-07 0.0
-2.45379e-07 1.60321e-07 0.0
2.50871e-07 -2.04012e-07 0.0
1.44562e-07 -7.67255e-07 0.0
-1.09031e-07 -3.56075e-07 0.0
-1.7968e-07 -1.09756e-07 0.0
-2.24495e-08 5.27849e-08 0.0
3.52928e-07 -8.0038e-08 0.0
5.81695e-08 -4.13179e-07 0.0
-1.92448e-07 8.71524e-08 0.0
1.83278e-07 -8.27966e-08 0.0
5.74654e-08 -5.28458e-07 0.0
-2.39807e-07 3.96663e-07 0.0
-6.64357e-08 9.90063e-07 0.0
2.26883e-07 7.33089e-07 0.0
3.4634e-07 3.79443e-07 0.0
-1.16563e-07 2.03241e-07 0.0
-3.41763e-07 6.28235e-07 0.0
2.02795e-07 3.09217e-07 0.0
7.61184e-08 -3.24308e-07 0.0
-3.78382e-07 4.85164e-07 0.0
6.46321e-08 5.25546e-07 0.0
3.61568e-07 -7.91743e-07 0.0
-1.58122e-07 -8.25502e-07 0.0
-4.65113e-07 -7.32337e-08 0.0
1.99671e-08 -1.6974e-07 0.0
2.51636e-07 -5.37929e-07 0.0
-1.2357e-07 -1.95296e-07 0.0
-1.49679e-08 6.81225e-08 0.0
1.74714e-07 -5.2568e-07 0.0
8.99653e-09 -6.55447e-07 0.0
-7.18772e-08 -2.75454e-07 0.0
-2.03288e-07 4.5021e-08 0.0
1.60956e-07 3.31902e-07 0.0
4.33205e-07 -2.67353e-07 0.0
-1.76847e-07 -2.82048e-07 0.0
-2.31882e-07 6.2469e-07 0.0
1.38409e-07 4.08994e-07 0.0
9.27256e-08 3.83061e-07 0.0
2.64451e-08 8.68664e-07 0.0
3.84726e-08 4.5594e-07 0.0
1.51079e-07 9.06421e-08 0.0
8.45124e-08 3.88895e-08 0.0
0 0 0.0
4.0266e-07 -6.59635e-07 0.0
1.76818e-07 -3.42337e-07 0.0
-3.169e-07 8.0654e-08 0.0
-1.45062e-07 2.53498e-07 0.0
1.98564e-07 -4.78994e-07 0.0
-2.77757e-08 -2.16735e-07 0.0
1.44847e-08 2.31923e-07 0.0
-4.12145e-08 -3.064e-08 0.0
9.33998e-08 -1.50805e-07 0.0
7.96402e-09 2.13719e-07 0.0
-4.51437e-07 4.33781e-07 0.0
2.38259e-07 3.5244e-08 0.0
4.54997e-07 -3.41475e-07 0.0
-1.4503e-07 2.23308e-07 0.0
6.58186e-08 4.89376e-07 0.0
-1.26848e-07 -2.50378e-08 0.0
-2.1764e-07 6.41369e-08 0.0
9.09436e-08 2.27862e-07 0.0
-1.82991e-07 -2.13226e-08 0.0
1.36341e-07 -1.3642e-07 0.0
3.62105e-07 -2.40005e-07 0.0
-2.51857e-07 7.05869e-08 0.0
-3.3888e-07 3.20764e-07 0.0
7.43463e-08 -2.76768e-07 0.0
2.50784e-07 -4.90394e-07 0.0
-3.97829e-08 1.95586e-08 0.0
-2.24858e-08 -6.69455e-09 0.0
3.41109e-07 -4.421e-07 0.0
-1.43085e-07 -1.23202e-07 0.0
-4.55307e-07 4.24556e-07 0.0
4.60199e-08 -4.64354e-08 0.0
1.80213e-07 -4.73483e-07 0.0
1.23322e-07 7.24099e-08 0.0
-4.62605e-08 3.69746e-07 0.0
-1.1906e-07 9.46804e-08 0.0
2.32893e-07 -1.99998e-08 0.0
-9.04482e-08 2.19455e-07 0.0
-1.74976e-07 3.34421e-07 0.0
4.58065e-07 -1.52284e-07 0.0
6.98168e-08 -2.10119e-07 0.0
-2.65951e-07 4.50483e-07 0.0
-1.64921e-07 3.51822e-07 0.0
-3.59741e-07 -9.6862e-08 0.0
1.36255e-07 -5.5317e-08 0.0
1.98631e-07 -6.74261e-08 0.0
-1.14863e-07 -4.70955e-08 0.0
3.77958e-07 -1.81108e-07 0.0
1.76245e-07 -3.17307e-07 0.0
-3.76884e-07 1.73222e-07 0.0
-2.0122e-07 1.27206e-07 0.0
1.93645e-07 -5.66299e-07 0.0
1.80739e-07 -3.64182e-07 0.0
-3.13548e-07 2.59225e-07 0.0
-6.34945e-08 5.55037e-08 0.0
2.07667e-07 -3.31554e-07 0.0
-2.51604e-07 1.15946e-07 0.0
-7.42835e-10 3.66436e-07 0.0
3.20364e-07 -2.47491e-07 0.0
2.60874e-07 -2.62587e-07 0.0
1.14801e-07 3.3875e-07 0.0
-3.96404e-07 4.35231e-07 0.0
-1.48836e-07 1.30746e-07 0.0
1.53912e-07 -7.53809e-08 0.0
-2.55548e-07 1.94536e-07 0.0
8.88735e-08 2.42701e-07 0.0
2.99761e-07 -2.37561e-07 0.0
-1.13365e-07 -1.44743e-08 0.0
-7.35324e-08 3.99225e-07 0.0
-2.04937e-07 5.08196e-08 0.0
-2.31634e-08 -2.57652e-07 0.0
4.56357e-07 -2.9997e-07 0.0
-6.91715e-08 -1.092e-07 0.0
-2.16555e-07 9.89858e-08 0.0
1.98761e-07 -2.71427e-07 0.0
-1.45926e-07 -2.6629e-07 0.0
-3.47929e-07 2.54541e-07 0.0
4.63091e-08 -1.09686e-07 0.0
4.16015e-07 -5.97139e-07 0.0
7.45463e-08 -1.76755e-08 0.0
-3.50071e-07 4.78605e-07 0.0
1.18779e-07 1.75228e-09 0.0
1.09e-07 -2.61469e-07 0.0
-1.25933e-07 2.56866e-07 0.0
1.84803e-07 2.37859e-07 0.0
9.16362e-08 -2.04266e-07 0.0
1.02896e-07 6.35001e-08 0.0
-2.00688e-07 4.56589e-07 0.0
-5.24265e-07 3.83511e-07 0.0
2.04366e-07 -4.52631e-08 0.0
2.06775e-07 -2.36308e-07 0.0
-6.17087e-08 1.92485e-07 0.0
2.61765e-07 1.14809e-07 0.0
-1.80296e-08 -2.64409e-07 0.0
-8.33925e-08 4.29543e-08 0.0
-9.85819e-08 1.4242e-07 0.0
-3.09925e-07 -1.48301e-07 0.0
2.69748e-07 -3.58739e-07 0.0
2.59113e-07 -3.4748e-07 0.0
-3.86963e-07 1.5575e-07 0.0
-1.13859e-07 1.46264e-07 0.0
2.29179e-07 -4.3899e-07 0.0
-6.25008e-09 -1.53635e-07 0.0
-7.87034e-08 2.53876e-07 0.0
2.82144e-07 -2.37414e-07 0.0
3.16255e-07 -3.5813e-07 0.0
-3.47387e-07 3.89628e-07 0.0
-3.7628e-07 5.39676e-07 0.0
1.08385e-07 -1.3535e-07 0.0
2.51457e-08 -1.43681e-07 0.0
1.19304e-07 3.27193e-07 0.0
1.35981e-07 1.53724e-07 0.0
1.55894e-08 -5.25268e-08 0.0
1.55452e-07 1.52876e-07 0.0
-3.37122e-07 3.23496e-07 0.0
-2.3102e-07 1.76406e-07 0.0
3.96433e-07 -3.18735e-07 0.0
-2.0173e-08 -2.38982e-07 0.0
-9.44807e-08 2.7725e-07 0.0
-5.66977e-08 1.28355e-08 0.0
-2.00364e-07 -2.66184e-07 0.0
1.83882e-07 -8.24208e-08 0.0
-8.85005e-08 -8.08116e-08 0.0
-2.57081e-08 -1.83512e-07 0.0
5.22376e-07 -4.09651e-07 0.0
-9.05426e-08 -1.62025e-07 0.0
-4.67575e-07 4.28439e-07 0.0
-5.36263e-09 -2.27908e-08 0.0
2.1186e-07 -4.94496e-07 0.0
-3.96574e-09 9.67814e-08 0.0
-9.01768e-08 3.13413e-07 0.0
2.85466e-07 -1.70807e-07 0.0
3.27701e-08 -3.14891e-08 0.0
-4.20408e-07 5.85645e-07 0.0
9.85958e-11 3.10038e-07 0.0
2.04622e-07 -3.01654e-07 0.0
1.79929e-07 -1.60496e-08 0.0
1.38411e-07 3.13888e-07 0.0
-2.35587e-07 1.49704e-07 0.0
-3.45772e-08 1.11009e-08 0.0
6.51367e-09 7.27466e-10 0.0
-3.92869e-07 1.64654e-07 0.0
1.18555e-07 -3.56295e-08 0.0
3.14638e-07 -4.64383e-07 0.0
-8.49358e-08 -7.66138e-08 0.0
-5.01308e-08 2.67529e-07 0.0
-1.82738e-07 -1.4688e-07 0.0
1.34995e-07 -3.64771e-07 0.0
3.37279e-07 -2.40695e-07 0.0
-2.47906e-07 -2.19124e-08 0.0
8.37225e-08 -6.8435e-08 0.0
2.17596e-07 -3.20123e-07 0.0
-4.89506e-07 1.97256e-07 0.0
-3.3246e-07 5.02031e-07 0.0
2.24729e-07 -2.68528e-07 0.0
3.75354e-07 -3.53932e-07 0.0
4.01897e-08 3.64748e-07 0.0
-7.64462e-09 3.27173e-07 0.0
2.62194e-07 -1.24154e-07 0.0
-2.08051e-07 1.38869e-07 0.0
-2.59881e-07 4.93887e-07 0.0
8.99003e-08 8.41036e-09 0.0
3.82878e-09 -2.70678e-07 0.0
1.43296e-07 1.3066e-07 0.0
-2.03579e-07 2.78262e-07 0.0
-3.40562e-07 1.28475e-07 0.0
2.96826e-07 -1.92701e-07 0.0
7.86238e-08 -2.52216e-07 0.0
-5.02199e-08 7.19495e-08 0.0
3.12346e-07 -2.09551e-07 0.0
2.862e-08 -4.20366e-07 0.0
-1.65143e-07 1.06409e-07 0.0
-3.00954e-07 1.77112e-07 0.0
-2.20353e-07 -2.37102e-07 0.0
4.08269e-07 -4.10173e-07 0.0
1.08717e-07 -1.31143e-07 0.0
-2.80659e-07 2.75154e-07 0.0
2.43884e-07 -2.38666e-08 0.0
6.63962e-08 -2.06395e-07 0.0
-3.36705e-07 4.22587e-07 0.0
2.4375e-08 2.98808e-07 0.0
3.85443e-07 -3.98478e-07 0.0
2.04319e-07 -4.23226e-08 0.0
-2.82296e-07 5.76233e-07 0.0
-1.27604e-07 2.6056e-07 0.0
2.78447e-08 -1.45334e-07 0.0
-2.17336e-07 1.50498e-07 0.0
7.58121e-08 2.48286e-07 0.0
8.02946e-08 -1.67397e-07 0.0
7.5875e-08 -1.55939e-07 0.0
1.69396e-07 1.09275e-07 0.0
-4.18825e-07 1.69803e-07 0.0
-4.17651e-08 -5.0315e-08 0.0
4.56223e-07 -5.36805e-07 0.0
-8.07567e-08 -2.68308e-07 0.0
-6.27761e-08 2.33141e-07 0.0
-8.08774e-08 -1.2046e-07 0.0
-1.45922e-07 -2.81547e-07 0.0
1.20665e-07 -6.96389e-08 0.0
-1.62471e-07 2.46026e-08 0.0
2.34764e-07 -5.71764e-08 0.0
0 0 0.0
-1.60012e-07 2.60225e-07 0.0
7.64666e-09 -7.18061e-07 0.0
2.8514e-07 -4.02428e-07 0.0
-1.50936e-08 4.09758e-07 0.0
8.24421e-09 1.36377e-07 0.0
-3.83878e-08 -3.44897e-07 0.0
-3.72303e-09 5.10832e-08 0.0
1.68413e-07 1.01479e-07 0.0
-1.70337e-07 -2.13947e-07 0.0
1.13751e-08 -4.52011e-08 0.0
1.49887e-07 1.78053e-07 0.0
-3.44156e-07 5.51081e-07 0.0
-3.65166e-08 -6.85779e-08 0.0
1.14453e-07 -6.5642e-07 0.0
2.4429e-08 1.25066e-07 0.0
3.09812e-07 -6.66252e-09 0.0
-6.27626e-08 -2.07616e-07 0.0
-1.3339e-07 3.91065e-07 0.0
1.21343e-07 1.45999e-07 0.0
-1.84667e-07 6.15196e-08 0.0
-1.05664e-07 -9.51256e-08 0.0
1.66658e-07 -4.62353e-07 0.0
1.03655e-07 2.52169e-07 0.0
-1.34749e-07 4.8685e-07 0.0
-2.21896e-07 -1.18913e-07 0.0
1.00005e-07 -1.73887e-07 0.0
7.10811e-08 6.43044e-08 0.0
-4.74544e-08 -1.5565e-07 0.0
2.3426e-07 -5.6207e-07 0.0
1.18366e-07 5.81468e-08 0.0
-8.44589e-08 6.57014e-07 0.0
-1.23661e-07 -4.32273e-08 0.0
-1.9466e-07 -2.63806e-07 0.0
1.1338e-07 1.00902e-07 0.0
3.95485e-08 4.45997e-08 0.0
-2.1837e-07 3.94112e-08 0.0
1.50043e-07 -7.92955e-08 0.0
1.28893e-08 1.25093e-07 0.0
-1.0871e-07 2.28844e-07 0.0
2.60522e-07 -6.32562e-07 0.0
7.76199e-08 -4.14582e-07 0.0
1.49189e-07 4.1015e-07 0.0
7.27257e-08 1.78188e-07 0.0
-4.55334e-07 3.3591e-07 0.0
-1.29731e-07 2.93549e-07 0.0
1.5528e-08 -1.08814e-07 0.0
-1.69539e-07 5.67457e-08 0.0
1.23228e-07 -4.3095e-07 0.0
2.5314e-07 -4.2493e-07 0.0
1.66505e-07 4.24107e-07 0.0
-1.17852e-07 1.42238e-07 0.0
-5.58853e-08 -3.88771e-07 0.0
2.18128e-07 -1.46775e-07 0.0
-1.13315e-07 3.09221e-07 0.0
-1.20537e-07 9.64883e-08 0.0
-2.35777e-08 -1.90875e-07 0.0
-1.91992e-07 4.81895e-07 0.0
-1.93206e-08 2.89778e-07 0.0
-6.6039e-08 -5.7398e-07 0.0
1.26833e-07 -3.96531e-07 0.0
4.26392e-07 -1.16672e-07 0.0
-3.79757e-08 1.81127e-07 0.0
-9.15584e-08 2.0702e-07 0.0
4.98888e-08 -7.68579e-08 0.0
-2.17697e-07 3.65979e-07 0.0
-9.86737e-09 8.1361e-08 0.0
3.12738e-08 -5.29088e-07 0.0
-7.79283e-08 1.26236e-07 0.0
1.82655e-07 3.41456e-07 0.0
-1.43796e-07 1.02404e-07 0.0
-2.54238e-07 5.79036e-08 0.0
2.52428e-07 -3.99333e-07 0.0
1.39547e-07 -1.47316e-07 0.0
-2.31745e-08 1.39524e-07 0.0
8.0177e-08 -3.38689e-07 0.0
5.23165e-08 1.35962e-07 0.0
-9.78849e-08 6.04373e-07 0.0
-2.83145e-07 -9.2252e-08 0.0
6.08154e-08 -4.93561e-07 0.0
1.64357e-07 -1.81345e-08 0.0
-1.24755e-07 3.92178e-07 0.0
3.05487e-08 -1.04665e-07 0.0
-5.96451e-08 -1.73918e-07 0.0
9.22416e-09 3.25132e-07 0.0
1.7592e-07 -2.27626e-07 0.0
-6.99101e-08 -4.74751e-07 0.0
2.39802e-07 -4.80401e-08 0.0
1.24474e-07 2.40386e-07 0.0
-3.65147e-07 6.09161e-07 0.0
-9.49294e-08 5.08595e-08 0.0
-1.14808e-07 -2.21714e-07 0.0
-2.95151e-08 2.27976e-07 0.0
2.3149e-07 -3.36992e-07 0.0
-3.91107e-08 -3.38114e-07 0.0
1.3711e-07 2.31973e-07 0.0
1.70835e-07 1.16364e-07 0.0
-2.76586e-07 1.66211e-07 0.0
-4.3883e-08 -2.11575e-07 0.0
1.9649e-07 -3.48595e-07 0.0
-6.10141e-08 4.30914e-07 0.0
-1.79646e-07 2.17729e-07 0.0
-6.52874e-08 -2.6636e-07 0.0
6.78028e-08 1.67759e-07 0.0
-4.9313e-08 1.23e-07 0.0
3.00062e-08 -5.51048e-07 0.0
3.22997e-07 -5.19379e-07 0.0
6.78399e-08 3.60608e-07 0.0
-1.1639e-07 5.19828e-07 0.0
-1.30737e-07 -9.38982e-08 0.0
-2.32809e-07 8.9697e-08 0.0
1.02957e-07 1.52758e-07 0.0
3.39112e-08 -3.10078e-07 0.0
-6.31053e-08 -1.76687e-07 0.0
3.10384e-07 -4.4276e-08 0.0
-5.39155e-08 2.87823e-07 0.0
-1.61408e-07 3.30389e-07 0.0
9.19136e-08 -4.67343e-07 0.0
-7.06444e-08 -1.25758e-07 0.0
1.69212e-07 2.9401e-07 0.0
-2.98547e-08 -9.97556e-08 0.0
-2.95142e-07 1.91861e-07 0.0
1.39218e-07 1.42752e-07 0.0
-5.68284e-08 -3.07914e-09 0.0
-1.65049e-07 -3.70674e-08 0.0
2.44867e-07 -6.5849e-07 0.0
2.14068e-07 -9.43982e-08 0.0
-3.33792e-08 6.12726e-07 0.0
-1.92033e-07 -4.04296e-08 0.0
-6.75452e-09 -2.19832e-07 0.0
6.50445e-08 1.72662e-07 0.0
-1.23682e-07 3.59501e-08 0.0
1.0123e-07 -4.18128e-07 0.0
9.05695e-08 -6.30006e-08 0.0
-1.24318e-07 6.70685e-07 0.0
-4.89938e-08 1.47964e-07 0.0
-1.55658e-07 -3.57228e-07 0.0
8.10532e-08 -9.38179e-08 0.0
3.29696e-07 -1.80275e-07 0.0
-5.77793e-08 -4.42312e-08 0.0
2.74119e-08 7.02798e-08 0.0
9.71053e-08 5.4105e-08 0.0
-2.55755e-07 4.96476e-07 0.0
-7.00781e-08 1.92997e-08 0.0
-5.08757e-08 -4.98277e-07 0.0
-1.41158e-08 1.7631e-07 0.0
1.90446e-07 2.22041e-07 0.0
-2.4014e-07 -1.14427e-08 0.0
-5.25829e-08 -4.93558e-08 0.0
3.39079e-07 -3.49073e-07 0.0
-2.02861e-08 -2.62452e-08 0.0
6.3795e-08 -1.88083e-07 0.0
1.83923e-07 -4.17119e-07 0.0
-6.0105e-08 6.39036e-07 0.0
-2.87974e-07 6.80231e-07 0.0
-3.19598e-07 -2.19371e-07 0.0
7.23105e-08 -2.37478e-07 0.0
7.03015e-08 3.58619e-08 0.0
4.86849e-08 -1.38266e-07 0.0
2.65924e-07 -4.49814e-07 0.0
1.94026e-08 1.29759e-07 0.0
6.05435e-08 4.55985e-07 0.0
2.07699e-09 -2.24454e-07 0.0
-2.02703e-07 -1.56606e-07 0.0
1.84618e-07 7.84424e-08 0.0
-2.691e-08 1.90077e-07 0.0
-3.37819e-07 4.56945e-07 0.0
-8.36823e-09 -9.68389e-08 0.0
-4.65779e-08 -1.09841e-07 0.0
3.97383e-08 1.34256e-07 0.0
2.05273e-07 -5.75201e-07 0.0
5.59457e-08 -3.69214e-07 0.0
2.35226e-07 3.07572e-07 0.0
-9.28171e-09 2.82869e-07 0.0
-3.96485e-07 1.84913e-07 0.0
5.26204e-08 -2.45077e-07 0.0
1.15509e-07 -1.54184e-07 0.0
-1.49601e-07 2.91265e-07 0.0
2.76651e-08 -2.59759e-07 0.0
5.48403e-08 -1.19304e-07 0.0
-4.4929e-08 6.17942e-07 0.0
-1.44713e-07 2.02691e-08 0.0
3.93735e-08 -6.11519e-07 0.0
2.89212e-07 -2.38875e-07 0.0
4.74784e-08 2.40825e-07 0.0
4.24499e-08 7.59077e-08 0.0
-5.25268e-08 -7.09479e-08 0.0
-2.04642e-07 4.11188e-07 0.0
8.07203e-08 1.50783e-07 0.0
-1.675e-07 -2.9161e-07 0.0
-7.16618e-08 -4.96146e-08 0.0
2.91635e-07 -3.10057e-08 0.0
-1.72884e-07 3.54438e-07 0.0
-8.72094e-08 1.59658e-07 0.0
1.35745e-07 -6.38197e-07 0.0
2.88841e-08 -9.19889e-08 0.0
1.94987e-07 1.492e-07 0.0
-4.68386e-08 -1.34427e-07 0.0
-8.76693e-08 3.01169e-07 0.0
1.66502e-07 -8.43237e-08 0.0
-5.49476e-08 -4.90498e-07 0.0
0 0 0.0
3.85604e-08 9.47562e-07 0.0
6.55822e-09 -1.59209e-07 0.0
-2.76278e-07 -2.16944e-07 0.0
-9.35629e-08 -1.95636e-07 0.0
9.40532e-08 3.26592e-07 0.0
2.05541e-07 -9.79179e-08 0.0
-2.00929e-07 -2.57246e-07 0.0
3.03167e-08 1.83813e-07 0.0
3.81987e-07 -1.36017e-07 0.0
-2.19836e-07 -3.35913e-07 0.0
-9.02434e-08 -9.56661e-09 0.0
1.24315e-07 2.57094e-07 0.0
-7.76194e-08 4.67261e-07 0.0
2.71238e-08 -8.98016e-08 0.0
-2.78009e-07 -3.10919e-07 0.0
-4.54829e-08 1.46561e-07 0.0
3.28567e-07 -2.93278e-07 0.0
-1.16564e-07 -2.86058e-07 0.0
-1.08813e-08 3.0238e-07 0.0
2.17438e-07 1.53023e-07 0.0
7.32146e-08 3.35944e-08 0.0
-9.94889e-08 -1.85777e-07 0.0
-2.28815e-07 -2.11459e-07 0.0
1.6574e-07 3.0169e-07 0.0
1.25222e-07 2.36224e-07 0.0
-3.19047e-07 3.19949e-08 0.0
-4.13692e-08 1.92673e-07 0.0
1.27157e-07 1.18385e-07 0.0
-3.53162e-08 -3.21202e-07 0.0
-6.16361e-08 -5.17615e-07 0.0
4.24974e-08 1.01117e-07 0.0
3.56457e-07 3.06991e-07 0.0
7.75714e-08 -2.25569e-07 0.0
-3.34938e-07 -3.49168e-08 0.0
1.06252e-07 2.03934e-07 0.0
4.17724e-08 -2.87317e-08 0.0
-3.11255e-07 3.81159e-08 0.0
-3.22928e-08 1.0538e-07 0.0
-3.64728e-08 2.81491e-07 0.0
9.79733e-08 6.35026e-08 0.0
1.11542e-07 -6.98635e-07 0.0
-1.78986e-07 -3.68913e-07 0.0
3.34724e-07 7.83143e-08 0.0
3.10489e-07 -1.35259e-07 0.0
-2.14717e-07 2.83766e-07 0.0
-7.54747e-08 4.61703e-07 0.0
-7.10637e-08 2.57257e-07 0.0
-9.57684e-08 1.33614e-07 0.0
-2.73959e-07 -3.12877e-07 0.0
-1.76993e-07 -9.0836e-08 0.0
4.1121e-07 2.42414e-07 0.0
9.98174e-08 -1.90404e-07 0.0
-1.02721e-07 -3.35404e-07 0.0
2.12687e-07 -8.02538e-08 0.0
1.18913e-07 8.05893e-08 0.0
2.45162e-08 -1.23983e-07 0.0
-2.44382e-07 4.93652e-08 0.0
-1.11767e-07 6.98952e-07 0.0
1.80505e-07 2.38003e-07 0.0
-3.32807e-07 -3.80724e-07 0.0
-2.12855e-07 -1.90861e-07 0.0
2.81514e-07 -2.16494e-07 0.0
9.28224e-08 -1.39529e-07 0.0
9.89615e-08 -7.47989e-08 0.0
6.20907e-08 -1.05185e-08 0.0
8.03e-09 3.61722e-07 0.0
1.84885e-07 -8.68587e-08 0.0
-2.13779e-07 -3.94692e-07 0.0
-2.54986e-07 2.64817e-07 0.0
2.47319e-07 3.03116e-07 0.0
-1.423e-08 1.07628e-07 0.0
-2.40563e-07 1.34689e-07 0.0
-3.60762e-08 -1.17403e-07 0.0
1.19616e-07 -6.94028e-08 0.0
1.44921e-07 -2.00521e-07 0.0
-1.59459e-07 -3.46029e-07 0.0
1.1279e-07 2.63795e-07 0.0
3.55508e-07 3.49597e-07 0.0
-1.96568e-07 -1.63604e-07 0.0
-1.75834e-07 -2.05172e-07 0.0
-4.18174e-09 1.41414e-07 0.0
1.09134e-08 2.16237e-07 0.0
-1.03605e-08 -1.54456e-07 0.0
-2.96048e-07 1.15709e-07 0.0
1.65508e-07 3.32814e-07 0.0
2.29829e-07 -4.12855e-07 0.0
-2.58346e-07 -5.07593e-07 0.0
1.54635e-07 -1.57394e-07 0.0
2.11716e-07 6.35382e-08 0.0
3.13747e-08 3.53106e-07 0.0
3.44476e-09 7.10419e-08 0.0
-3.18595e-07 1.827e-07 0.0
8.81919e-09 3.21173e-07 0.0
8.94198e-08 -3.67956e-07 0.0
-3.08488e-07 -2.26357e-07 0.0
8.35318e-08 2.07494e-07 0.0
3.3574e-07 2.90154e-08 0.0
4.31966e-08 -2.37915e-08 0.0
-1.16418e-07 -2.19161e-07 0.0
-2.52375e-08 -8.75274e-08 0.0
1.92067e-07 2.94983e-07 0.0
-8.63203e-08 3.85807e-08 0.0
-3.18568e-07 7.86863e-08 0.0
1.12369e-07 4.06638e-07 0.0
8.51568e-08 -3.9035e-09 0.0
-1.71039e-07 -5.71692e-07 0.0
8.19683e-09 -4.18364e-07 0.0
1.41912e-07 1.66379e-07 0.0
2.68551e-07 1.16583e-07 0.0
-6.87095e-08 -9.9616e-08 0.0
-2.75201e-07 3.45417e-07 0.0
1.96316e-07 1.87737e-07 0.0
-1.02625e-07 -3.0637e-07 0.0
-2.65652e-07 -1.36325e-07 0.0
1.44558e-07 -1.19682e-08 0.0
5.40417e-08 2.2718e-07 0.0
1.84733e-07 8.11865e-08 0.0
-3.97227e-08 -3.97699e-07 0.0
-2.096e-07 6.00973e-08 0.0
3.39125e-07 1.05888e-07 0.0
-1.65166e-08 -1.88588e-07 0.0
-2.93273e-07 2.90936e-07 0.0
1.01102e-07 3.32419e-07 0.0
5.25245e-08 1.3598e-07 0.0
-9.06031e-08 -1.34049e-07 0.0
-2.1933e-07 -4.65973e-07 0.0
9.06431e-08 4.37285e-08 0.0
3.40842e-07 2.04963e-07 0.0
-1.42006e-07 -1.74354e-07 0.0
-7.41035e-08 3.20053e-08 0.0
1.86386e-07 1.8463e-07 0.0
-2.29813e-08 -1.61098e-07 0.0
-9.71761e-08 -4.22496e-07 0.0
-1.3224e-07 8.8955e-08 0.0
9.77028e-08 5.49158e-07 0.0
1.41515e-07 2.88053e-08 0.0
-3.29957e-07 -1.25018e-07 0.0
-7.69951e-08 6.83975e-08 0.0
2.59208e-07 -2.61549e-07 0.0
-3.64969e-08 -2.59197e-07 0.0
6.61198e-08 -1.02726e-07 0.0
1.15594e-07 9.22475e-08 0.0
8.86026e-08 3.96843e-07 0.0
1.32494e-07 -9.88762e-08 0.0
-3.73814e-07 -2.05245e-07 0.0
-1.50797e-07 3.9027e-07 0.0
2.59182e-07 1.83472e-07 0.0
-2.50515e-07 4.78403e-08 0.0
-1.6188e-07 1.20699e-07 0.0
1.70905e-07 -1.44311e-07 0.0
1.67603e-07 -2.15879e-07 0.0
7.605e-08 -5.47202e-07 0.0
-9.22397e-08 -3.48511e-07 0.0
3.00378e-07 4.93708e-07 0.0
1.46266e-07 3.51732e-07 0.0
-3.98567e-07 2.84437e-08 0.0
-1.41443e-07 1.98315e-07 0.0
-8.63033e-08 1.53689e-07 0.0
-5.55722e-08 -2.42079e-07 0.0
-3.02627e-08 -4.27609e-07 0.0
-5.45723e-08 1.37944e-07 0.0
4.24525e-07 1.29399e-07 0.0
1.54309e-07 -4.30568e-07 0.0
-2.18779e-07 -1.52648e-07 0.0
1.68225e-07 4.99365e-08 0.0
5.70137e-08 1.5736e-07 0.0
-1.15617e-07 3.71953e-07 0.0
-1.47974e-07 1.44337e-07 0.0
-2.3002e-07 3.09096e-07 0.0
1.30139e-07 1.27383e-07 0.0
-1.04805e-08 -6.01847e-07 0.0
-2.62433e-07 -2.63249e-07 0.0
3.22104e-07 1.66213e-07 0.0
3.29412e-07 2.24786e-08 0.0
-1.41875e-07 4.60496e-08 0.0
-5.87829e-08 -5.72279e-08 0.0
6.22786e-08 3.92032e-08 0.0
5.05278e-08 5.27955e-08 0.0
-2.12079e-07 -2.74138e-07 0.0
-1.85526e-07 1.99291e-07 0.0
2.40202e-07 5.35114e-07 0.0
-7.54814e-08 -9.95399e-08 0.0
-2.22301e-07 -3.94328e-07 0.0
8.12919e-08 -1.51818e-07 0.0
1.1322e-07 -2.4549e-08 0.0
2.33996e-07 -2.44657e-07 0.0
-7.24585e-08 -7.87865e-08 0.0
-3.64052e-08 4.44741e-07 0.0
3.11268e-07 5.94092e-08 0.0
-2.55824e-07 -2.17756e-07 0.0
-2.55308e-07 9.76273e-08 0.0
7.59234e-08 1.34073e-07 0.0
-3.92938e-08 3.80241e-07 0.0
9.44751e-08 4.4078e-08 0.0
-1.543e-07 -4.03657e-07 0.0
-5.23466e-08 5.15623e-08 0.0
3.14868e-07 -1.11463e-07 0.0
-1.21368e-07 -2.47466e-07 0.0
1.17443e-07 1.65408e-07 0.0
2.92117e-07 3.909e-07 0.0
0 0 0.0
-2.75764e-07 3.22751e-07 0.0
3.94687e-07 4.66217e-07 0.0
2.09033e-07 -3.15212e-08 0.0
-1.30766e-07 -3.37175e-07 0.0
-3.63828e-07 2.77825e-07 0.0
-2.70151e-09 3.44386e-07 0.0
2.331e-07 -2.6454e-07 0.0
-3.41746e-07 -6.17625e-08 0.0
-1.10298e-08 3.29011e-07 0.0
5.09403e-07 -3.48945e-07 0.0
-8.14196e-08 -4.17106e-07 0.0
-1.85094e-07 -9.96053e-08 0.0
-1.0604e-08 2.90424e-07 0.0
1.30456e-07 4.52877e-07 0.0
1.89584e-07 -1.86445e-07 0.0
-2.95205e-07 1.20813e-07 0.0
-1.17819e-07 3.10703e-07 0.0
1.60929e-07 -4.4816e-07 0.0
-1.76316e-07 -1.57522e-07 0.0
-1.78196e-07 1.5051e-07 0.0
1.11718e-07 8.65344e-08 0.0
4.36596e-07 1.13631e-08 0.0
1.0615e-07 -4.96473e-07 0.0
-3.99159e-07 -1.17414e-07 0.0
1.19475e-07 3.20691e-07 0.0
2.34344e-07 -8.2634e-08 0.0
-3.19607e-07 8.73815e-08 0.0
-1.42937e-07 4.86911e-07 0.0
2.04949e-07 2.75204e-07 0.0
7.05501e-08 -3.64897e-07 0.0
-3.02363e-07 -4.12683e-07 0.0
-2.54068e-07 2.76776e-07 0.0
4.15984e-07 -7.72026e-09 0.0
2.94209e-07 -4.85207e-07 0.0
-2.22502e-07 6.03714e-08 0.0
1.92053e-07 1.30489e-07 0.0
1.81077e-07 -9.08402e-08 0.0
-2.74652e-07 7.77208e-08 0.0
-2.42383e-07 2.86734e-07 0.0
-1.6229e-07 6.67141e-07 0.0
1.9814e-07 1.16552e-07 0.0
8.14185e-08 -6.15372e-07 0.0
-3.46599e-07 -1.40658e-07 0.0
1.34292e-07 -2.66363e-07 0.0
3.12297e-07 -4.98074e-07 0.0
3.75946e-08 2.72904e-08 0.0
-2.42961e-08 1.88835e-07 0.0
1.2038e-07 4.52581e-07 0.0
2.95053e-07 1.53075e-07 0.0
-4.1248e-07 -2.49382e-07 0.0
-5.77512e-07 4.35695e-07 0.0
2.34369e-07 3.00631e-07 0.0
9.04074e-08 -3.5004e-07 0.0
-1.53838e-07 -2.74323e-07 0.0
1.23255e-07 -8.99092e-08 0.0
3.07527e-07 -1.83667e-07 0.0
2.03081e-07 -5.46161e-07 0.0
-3.12625e-07 9.96446e-08 0.0
-4.94187e-08 8.30256e-07 0.0
4.16812e-07 1.49619e-07 0.0
-1.7978e-07 -3.82719e-08 0.0
-3.74596e-07 1.66577e-07 0.0
-2.25015e-08 -7.74223e-08 0.0
-3.16477e-08 -1.18496e-07 0.0
-1.47737e-08 -3.02687e-07 0.0
-3.83375e-08 6.51251e-09 0.0
1.66756e-07 3.09689e-07 0.0
4.6534e-07 -4.34508e-07 0.0
-6.87698e-08 -3.74822e-07 0.0
-3.55731e-07 2.73146e-07 0.0
1.02914e-07 1.66252e-07 0.0
1.40153e-07 1.83122e-07 0.0
-1.43482e-07 1.28601e-07 0.0
-2.56837e-07 1.13065e-07 0.0
1.32768e-07 1.99855e-07 0.0
2.0401e-07 -4.75014e-07 0.0
-4.60107e-07 -3.64568e-07 0.0
-5.22674e-08 3.95818e-07 0.0
5.46418e-07 2.29236e-08 0.0
9.88958e-08 -3.55535e-07 0.0
-1.0066e-07 -1.07581e-07 0.0
-6.93033e-08 2.60223e-07 0.0
1.11392e-07 1.10452e-07 0.0
-5.48857e-08 -1.82031e-07 0.0
-4.72973e-07 5.38776e-07 0.0
1.61526e-07 4.69414e-07 0.0
3.11203e-07 -4.11333e-07 0.0
-2.43111e-07 -3.40425e-07 0.0
-9.3251e-08 -2.86273e-07 0.0
5.44542e-08 -5.96415e-08 0.0
2.19235e-07 5.21893e-08 0.0
1.44743e-07 -1.89185e-07 0.0
-2.03342e-07 4.52341e-07 0.0
1.38159e-07 3.31775e-07 0.0
1.38394e-07 -3.65239e-07 0.0
-4.17626e-07 2.7357e-08 0.0
-2.90805e-07 1.96996e-07 0.0
2.21607e-07 6.26331e-08 0.0
3.13534e-07 -1.70448e-07 0.0
-1.12841e-07 -4.5355e-07 0.0
-1.42132e-07 6.25457e-08 0.0
3.62616e-07 1.06873e-07 0.0
8.29283e-09 -2.82314e-07 0.0
-4.43237e-07 3.42105e-07 0.0
1.27246e-07 6.66949e-07 0.0
2.74965e-07 6.387e-09 0.0
-1.2506e-07 -4.56535e-07 0.0
-2.56141e-07 -1.99784e-07 0.0
-7.7006e-08 1.43077e-07 0.0
3.28373e-07 -2.52717e-07 0.0
3.5776e-09 -1.80881e-07 0.0
-1.90087e-07 4.91376e-07 0.0
3.56244e-07 1.13045e-07 0.0
4.27111e-08 -2.05811e-07 0.0
-3.12629e-07 -3.21524e-08 0.0
-1.88337e-07 4.64834e-08 0.0
-5.50529e-08 3.69856e-07 0.0
3.38087e-07 -1.57673e-07 0.0
-2.18748e-08 -4.19975e-07 0.0
-2.29466e-07 2.02679e-07 0.0
3.25744e-07 -2.18626e-07 0.0
7.99482e-08 -3.17349e-07 0.0
-2.81843e-07 2.34343e-07 0.0
-6.55361e-08 3.28693e-07 0.0
2.91622e-07 3.52521e-07 0.0
1.54702e-07 -2.5233e-07 0.0
-4.90465e-07 -2.87644e-07 0.0
-1.37061e-07 3.63522e-07 0.0
3.45358e-07 -9.48565e-08 0.0
-1.48447e-07 -2.85461e-07 0.0
-1.09538e-07 2.32637e-07 0.0
3.07407e-07 1.77533e-07 0.0
2.28419e-07 -3.29542e-07 0.0
-9.2385e-08 -4.79485e-07 0.0
-3.33278e-07 2.54421e-07 0.0
5.61443e-08 4.64727e-07 0.0
2.76272e-07 -7.21517e-08 0.0
-2.49646e-07 1.79084e-07 0.0
-1.64058e-07 2.55065e-07 0.0
1.54643e-07 -1.86826e-07 0.0
-6.58637e-08 -2.56425e-07 0.0
-9.32916e-08 -3.24977e-07 0.0
-5.436e-08 6.22097e-08 0.0
2.96349e-07 2.09707e-07 0.0
4.59617e-07 -4.93347e-07 0.0
-2.86197e-07 -1.16427e-07 0.0
-2.36216e-07 4.46207e-07 0.0
2.05978e-07 1.1152e-07 0.0
-1.6233e-07 2.32507e-07 0.0
-3.19757e-07 2.83809e-07 0.0
-4.33977e-08 2.18609e-07 0.0
3.55699e-07 -1.28596e-07 0.0
2.57004e-08 -8.9198e-07 0.0
-4.09527e-07 -2.81261e-07 0.0
3.2795e-07 2.90701e-07 0.0
4.12443e-07 -1.73308e-07 0.0
-1.2711e-07 7.14278e-08 0.0
-3.19949e-08 4.71012e-07 0.0
-2.42844e-08 3.7202e-07 0.0
-4.7813e-08 -1.2043e-07 0.0
-3.41245e-07 -1.67723e-07 0.0
-3.85984e-07 4.3371e-07 0.0
3.42293e-07 -5.57681e-08 0.0
2.83654e-07 -5.58044e-07 0.0
-1.06438e-07 -2.46495e-07 0.0
9.09157e-08 -2.50623e-07 0.0
1.52469e-07 2.11317e-08 0.0
1.11719e-07 8.68659e-08 0.0
-1.33709e-07 1.16578e-07 0.0
-2.17101e-07 7.15566e-07 0.0
2.55472e-07 1.68388e-07 0.0
-1.84715e-08 -5.0266e-07 0.0
-5.69718e-07 9.1719e-09 0.0
-5.0771e-08 9.68937e-08 0.0
3.5569e-07 -1.18276e-07 0.0
8.33178e-08 -1.65932e-07 0.0
-7.63269e-08 -1.19934e-07 0.0
1.95143e-07 1.94227e-07 0.0
3.64234e-07 -2.29195e-07 0.0
-3.01692e-07 -3.89286e-07 0.0
-3.82834e-07 5.62346e-07 0.0
3.00528e-07 5.26629e-07 0.0
4.99729e-08 -9.84497e-08 0.0
-2.19938e-07 -5.5778e-08 0.0
-1.31825e-07 7.50422e-08 0.0
-2.30179e-08 -6.18878e-08 0.0
2.06439e-07 -4.84457e-07 0.0
-1.70005e-07 -1.11056e-07 0.0
1.35103e-08 3.40924e-07 0.0
5.32995e-07 -2.26181e-07 0.0
2.49859e-08 -2.25605e-07 0.0
-2.45046e-07 1.7665e-08 0.0
-1.938e-07 2.31782e-07 0.0
-2.82653e-10 5.35597e-07 0.0
1.7565e-07 -8.8927e-08 0.0
-2.76013e-07 -1.10126e-07 0.0
-1.16132e-07 2.47001e-07 0.0
2.15468e-07 -3.41358e-07 0.0
-1.64163e-07 -8.99396e-08 0.0
-5.943e-08 -1.26123e-07 0.0
0 0 0.0
-1.20253e-07 -7.87569e-07 0.0
-4.30999e-07 5.54789e-07 0.0
1.81245e-07 9.65996e-08 0.0
3.98608e-07 -3.00589e-07 0.0
1.37453e-07 -3.1043e-07 0.0
-2.94391e-07 3.76399e-07 0.0
-2.80537e-08 3.86981e-07 0.0
2.0932e-07 -2.68637e-07 0.0
-4.29618e-07 2.03754e-07 0.0
-1.42327e-07 4.06233e-07 0.0
4.00431e-07 -3.75955e-07 0.0
1.19748e-07 -4.71298e-07 0.0
-1.25618e-07 -1.49072e-07 0.0
-1.99329e-07 2.21954e-07 0.0
1.31941e-07 1.18889e-07 0.0
2.23057e-07 -2.83679e-07 0.0
-8.71316e-08 2.83766e-07 0.0
1.7058e-08 3.07777e-07 0.0
5.54024e-08 -2.33989e-07 0.0
-6.41305e-08 3.54829e-08 0.0
-3.5668e-07 1.92278e-07 0.0
-3.14377e-07 2.38054e-07 0.0
4.79332e-07 -1.36327e-07 0.0
3.2533e-07 -6.41932e-07 0.0
-3.04696e-07 -1.57924e-08 0.0
1.22904e-07 1.58187e-07 0.0
2.73289e-07 -3.50745e-07 0.0
-2.42707e-07 3.8179e-08 0.0
-2.42079e-07 5.62522e-07 0.0
1.77332e-07 2.92185e-07 0.0
2.70023e-07 -2.81602e-07 0.0
-2.48173e-07 -4.65994e-08 0.0
-4.74473e-07 5.10285e-07 0.0
1.53243e-07 -1.0706e-07 0.0
2.17003e-07 -5.70877e-07 0.0
-1.3716e-07 -5.37929e-08 0.0
2.3837e-07 -1.03351e-07 0.0
3.3774e-07 -3.53108e-07 0.0
-2.08353e-10 -1.14333e-07 0.0
-2.62877e-07 3.60428e-07 0.0
-2.9553e-07 7.65646e-07 0.0
1.57978e-07 1.92983e-07 0.0
1.08527e-07 -1.98723e-07 0.0
-2.2492e-07 1.99241e-07 0.0
-9.98322e-08 -1.65029e-07 0.0
6.70041e-08 -4.76167e-07 0.0
1.28835e-07 -3.15301e-07 0.0
-2.00163e-07 -1.12037e-07 0.0
1.14411e-07 2.30729e-07 0.0
7.29101e-07 -2.368e-07 0.0
-1.07499e-07 -1.63535e-07 0.0
-5.21164e-07 7.88266e-07 0.0
3.54443e-08 4.45194e-07 0.0
-4.00896e-08 -1.43336e-07 0.0
-2.37148e-07 1.74475e-08 0.0
-1.23333e-07 8.76854e-08 0.0
2.84444e-07 -3.59896e-07 0.0
2.98e-07 -7.94046e-07 0.0
-3.09364e-07 -1.6527e-08 0.0
-1.02553e-07 4.7778e-07 0.0
4.24822e-07 -1.45419e-07 0.0
1.48732e-07 -2.58838e-08 0.0
-1.22929e-07 3.42157e-07 0.0
-7.07291e-08 2.27353e-07 0.0
-8.03956e-08 5.16898e-08 0.0
-1.88828e-07 -1.32819e-07 0.0
-3.25001e-07 2.05778e-07 0.0
-2.04528e-08 1.72342e-07 0.0
4.55434e-07 -5.87504e-07 0.0
2.23345e-07 -4.20091e-07 0.0
-1.70624e-07 1.00033e-07 0.0
-7.61681e-08 6.90531e-08 0.0
2.21326e-07 3.86078e-08 0.0
4.30654e-08 1.26081e-08 0.0
-3.83893e-07 3.78155e-07 0.0
1.84538e-07 3.43447e-07 0.0
3.4178e-07 -4.48367e-07 0.0
-5.60878e-07 -3.22156e-08 0.0
-3.17223e-07 5.14394e-07 0.0
2.80012e-07 -1.92214e-07 0.0
2.01068e-07 -5.21444e-07 0.0
6.88332e-08 -1.70764e-07 0.0
-2.26274e-08 1.39466e-07 0.0
2.74944e-07 -1.60644e-07 0.0
3.16363e-09 -2.03245e-07 0.0
-5.00934e-07 6.76087e-07 0.0
2.88833e-08 4.82199e-07 0.0
2.69746e-07 -2.26351e-07 0.0
1.86188e-09 -1.19775e-07 0.0
-1.571e-07 -8.94982e-08 0.0
-1.79436e-07 1.3697e-10 0.0
1.24726e-07 -2.37302e-07 0.0
6.03489e-08 -3.40511e-07 0.0
-1.12906e-07 3.2581e-07 0.0
2.16893e-07 1.11214e-07 0.0
3.31182e-07 -2.86583e-07 0.0
-9.44957e-08 1.56184e-07 0.0
-4.84052e-07 3.94896e-07 0.0
-1.01733e-07 2.73796e-07 0.0
3.76163e-07 -2.63196e-07 0.0
-1.0575e-07 -3.97221e-07 0.0
-2.38265e-07 1.72299e-07 0.0
4.19844e-07 -1.86255e-07 0.0
8.56542e-08 -4.99019e-07 0.0
-4.74814e-07 3.81988e-07 0.0
1.27343e-08 5.95889e-07 0.0
3.20961e-07 -7.12274e-08 0.0
1.44046e-07 -2.78559e-07 0.0
-1.83075e-07 1.04972e-07 0.0
-2.2027e-07 2.05004e-07 0.0
1.75227e-07 -3.75178e-07 0.0
-1.09629e-07 -2.1819e-07 0.0
-2.09349e-07 3.47523e-07 0.0
3.20509e-07 -6.27193e-08 0.0
2.56959e-07 -2.38878e-07 0.0
-1.20692e-09 -2.32087e-09 0.0
-3.12375e-07 2.62295e-07 0.0
-2.2951e-07 4.55268e-07 0.0
2.52086e-07 -1.97945e-07 0.0
-2.46683e-08 -2.22409e-07 0.0
-1.49851e-07 2.26525e-07 0.0
1.93216e-07 -2.9703e-07 0.0
1.94215e-07 -3.7682e-07 0.0
-1.61651e-07 3.35068e-08 0.0
-3.67277e-07 3.27127e-07 0.0
3.34281e-07 2.3395e-07 0.0
4.58685e-07 -4.14035e-07 0.0
-4.01427e-07 3.0091e-08 0.0
-1.83222e-07 5.46735e-07 0.0
2.06541e-07 -1.76003e-07 0.0
-2.46584e-07 -1.8897e-07 0.0
-2.5815e-07 3.36306e-07 0.0
1.8767e-07 8.29917e-08 0.0
3.98795e-07 -5.10566e-07 0.0
1.39845e-07 -4.82575e-07 0.0
-2.84515e-07 2.3746e-07 0.0
-6.60159e-08 2.30583e-07 0.0
2.11132e-07 -1.74733e-07 0.0
-1.12342e-07 2.36212e-07 0.0
-1.18568e-07 3.84874e-07 0.0
9.18862e-08 5.97053e-08 0.0
2.26691e-08 -9.28373e-08 0.0
-1.61175e-07 -1.49962e-07 0.0
-3.62691e-07 1.97741e-07 0.0
1.44592e-07 -2.80693e-08 0.0
5.40519e-07 -7.42628e-07 0.0
7.50832e-09 -2.36995e-07 0.0
-1.13066e-07 2.29192e-07 0.0
1.29203e-07 9.65596e-09 0.0
4.70251e-08 1.70566e-07 0.0
-3.66745e-07 4.2708e-07 0.0
-3.19392e-07 6.30654e-07 0.0
4.78613e-07 -2.03038e-08 0.0
8.71135e-08 -7.05882e-07 0.0
-5.49267e-07 3.61694e-08 0.0
1.03886e-07 4.50241e-08 0.0
2.42571e-07 -6.09535e-07 0.0
1.56598e-08 -2.0685e-07 0.0
1.08612e-07 2.54648e-07 0.0
1.77511e-07 2.13752e-07 0.0
2.48971e-07 -9.95239e-08 0.0
-2.56743e-07 2.03369e-07 0.0
-5.31537e-07 7.47382e-07 0.0
-2.18116e-08 1.19107e-07 0.0
1.48518e-07 -3.48459e-07 0.0
-6.64128e-09 -2.25808e-07 0.0
-4.17565e-08 -2.79011e-07 0.0
1.10809e-07 -1.90485e-07 0.0
2.37968e-07 -3.28642e-07 0.0
-9.20521e-08 -2.15431e-08 0.0
-1.63807e-07 6.17089e-07 0.0
3.73348e-07 7.12485e-08 0.0
2.60972e-07 -2.76598e-07 0.0
-4.11271e-07 3.12608e-07 0.0
-3.99577e-07 3.62955e-07 0.0
5.51333e-08 -1.98746e-08 0.0
6.70049e-08 -2.73244e-07 0.0
-2.68799e-07 -5.38523e-08 0.0
1.712e-07 1.09435e-07 0.0
6.56318e-07 -6.16989e-07 0.0
-1.4855e-07 -4.48126e-07 0.0
-3.62245e-07 5.5725e-07 0.0
2.02497e-07 2.72166e-07 0.0
7.77572e-08 -1.30959e-07 0.0
-1.57287e-08 1.65625e-07 0.0
-1.46079e-07 3.3681e-07 0.0
-9.80075e-08 1.00535e-07 0.0
1.06008e-07 -3.43445e-07 0.0
-3.19989e-07 2.66097e-08 0.0
-1.60296e-07 2.14693e-07 0.0
3.87188e-07 -4.22526e-07 0.0
3.28712e-07 -4.08302e-07 0.0
4.82898e-08 -1.67045e-07 0.0
-2.65762e-07 2.66179e-07 0.0
1.34001e-08 4.21355e-07 0.0
1.94953e-07 -1.76969e-07 0.0
-2.66277e-07 2.41496e-07 0.0
-1.6594e-07 4.95934e-07 0.0
5.93196e-08 -1.60501e-07 0.0
-2.05765e-07 1.94083e-08 0.0
0 0 0.0
4.43772e-07 -4.11285e-07 0.0
-1.43282e-07 -2.69032e-08 0.0
-2.84154e-07 3.97179e-07 0.0
-1.57922e-07 1.96478e-07 0.0
1.46728e-07 -5.75292e-07 0.0
2.65338e-07 -3.71998e-07 0.0
-1.30213e-07 2.6801e-07 0.0
1.78051e-08 1.67001e-07 0.0
2.35237e-07 -2.08008e-07 0.0
-2.92516e-07 4.51754e-07 0.0
-2.19611e-07 4.32575e-07 0.0
1.37026e-07 -2.54286e-07 0.0
1.35471e-07 -3.87005e-07 0.0
2.85644e-08 -1.02514e-07 0.0
-1.4999e-07 2.86492e-07 0.0
-3.25336e-08 -1.54494e-07 0.0
5.87116e-08 -3.28448e-07 0.0
8.23004e-08 2.10743e-07 0.0
8.52741e-08 -7.88207e-08 0.0
4.51981e-08 -1.16367e-07 0.0
2.09583e-07 1.65407e-07 0.0
-2.18841e-07 2.78199e-07 0.0
-5.50063e-07 6.05454e-07 0.0
1.29436e-07 -1.09197e-07 0.0
2.43427e-07 -6.15323e-07 0.0
-1.53213e-07 8.18362e-08 0.0
1.25445e-07 -6.38353e-08 0.0
2.78989e-07 -5.0977e-07 0.0
-5.62131e-08 -3.57378e-08 0.0
-1.87536e-07 4.25983e-07 0.0
-4.4957e-09 9.39028e-08 0.0
2.62727e-07 -3.54711e-07 0.0
3.62793e-08 2.15083e-07 0.0
-3.72818e-07 7.14989e-07 0.0
-6.47929e-08 6.17998e-08 0.0
2.44548e-08 -2.33209e-07 0.0
-1.95616e-07 1.02785e-08 0.0
1.23917e-07 -2.75162e-07 0.0
2.76065e-07 -5.83301e-07 0.0
2.02223e-07 -4.33119e-07 0.0
4.08501e-09 2.38795e-07 0.0
-2.36161e-07 5.79918e-07 0.0
-3.84218e-08 4.15376e-08 0.0
8.70631e-08 1.13766e-07 0.0
2.1714e-08 3.54681e-07 0.0
-1.53267e-07 4.09617e-08 0.0
-6.65718e-08 -5.26387e-09 0.0
1.5938e-07 -2.69209e-07 0.0
-3.56907e-07 -8.92335e-08 0.0
-1.68948e-07 6.85908e-08 0.0
5.92471e-07 -8.09508e-07 0.0
1.79632e-07 -3.75168e-07 0.0
-1.21164e-07 6.32319e-07 0.0
6.93485e-08 3.08252e-07 0.0
-2.79952e-08 8.74782e-08 0.0
-1.61001e-07 3.43788e-07 0.0
-2.50668e-07 4.01177e-07 0.0
3.89454e-08 -2.6412e-07 0.0
2.31177e-07 -6.48269e-07 0.0
-1.7644e-07 1.29838e-07 0.0
-2.20797e-07 1.72559e-07 0.0
1.57058e-07 -3.96434e-07 0.0
1.86954e-07 -2.46873e-07 0.0
1.19365e-07 2.9295e-08 0.0
1.53996e-07 1.77239e-07 0.0
5.72286e-08 6.33771e-08 0.0
-7.07708e-08 1.42021e-07 0.0
-2.93362e-07 6.16445e-07 0.0
-3.36582e-07 2.23009e-07 0.0
4.97074e-08 -4.39693e-07 0.0
2.55771e-07 -3.19226e-07 0.0
3.23096e-08 -1.43491e-07 0.0
-1.44246e-07 3.93399e-09 0.0
2.07975e-07 -1.17374e-07 0.0
1.90595e-07 -2.60817e-07 0.0
-3.43953e-07 4.00992e-07 0.0
1.46711e-07 1.87651e-07 0.0
4.04574e-07 -4.89618e-07 0.0
-2.84179e-07 3.55645e-07 0.0
-2.81952e-07 7.03744e-07 0.0
-9.43858e-08 -6.93633e-08 0.0
7.43969e-09 -3.74617e-07 0.0
8.12365e-08 -1.69261e-07 0.0
-3.41653e-08 -3.31322e-08 0.0
2.81698e-07 -4.86959e-07 0.0
1.63945e-07 -2.30679e-07 0.0
-2.83248e-07 6.09967e-07 0.0
-1.01593e-07 2.76749e-07 0.0
9.30757e-08 -9.66489e-08 0.0
1.33497e-07 -5.2792e-08 0.0
2.54188e-08 8.24419e-08 0.0
-1.31149e-07 2.40702e-07 0.0
-4.6119e-08 -2.36915e-07 0.0
-4.59237e-08 -1.50469e-07 0.0
-1.39464e-07 2.03928e-07 0.0
-3.95326e-08 -2.60807e-07 0.0
2.99942e-07 -3.26957e-07 0.0
2.85607e-07 -1.12723e-08 0.0
-2.7064e-07 3.96123e-07 0.0
-2.19566e-07 5.04618e-07 0.0
2.73201e-07 -2.59711e-07 0.0
-6.06609e-08 -2.05674e-07 0.0
-2.54208e-07 3.13991e-07 0.0
3.08888e-07 -3.83243e-07 0.0
1.19142e-07 -4.92407e-07 0.0
-3.28383e-07 4.35057e-07 0.0
-1.2156e-07 4.10596e-07 0.0
4.64718e-08 -2.19029e-07 0.0
2.28736e-07 -2.62714e-07 0.0
8.69037e-08 2.07985e-07 0.0
-1.14229e-07 2.15448e-07 0.0
1.31548e-07 -2.63755e-07 0.0
-1.1763e-07 3.56455e-08 0.0
-2.58524e-07 2.56276e-07 0.0
4.93017e-08 -2.19901e-07 0.0
1.64106e-07 -3.39069e-07 0.0
2.37332e-07 -2.02278e-07 0.0
-7.69877e-08 3.36598e-07 0.0
-2.26258e-07 4.49725e-07 0.0
4.83717e-08 -1.60818e-07 0.0
3.52549e-09 8.62818e-08 0.0
-9.76167e-08 1.5953e-07 0.0
-1.80832e-08 -2.62932e-07 0.0
2.62156e-07 -2.44419e-07 0.0
4.2863e-08 -1.21755e-07 0.0
-4.62055e-07 3.86747e-07 0.0
1.12664e-07 4.80849e-08 0.0
4.29856e-07 -6.97928e-07 0.0
-1.33616e-07 1.43351e-07 0.0
-2.63537e-08 4.66051e-07 0.0
1.60117e-07 -1.7674e-07 0.0
-2.08088e-07 1.26134e-07 0.0
-2.99086e-07 5.37547e-07 0.0
-9.89168e-08 1.06587e-07 0.0
1.67712e-07 -5.69141e-07 0.0
2.93512e-07 -4.3261e-07 0.0
-1.75354e-08 1.50026e-07 0.0
-7.13621e-08 -3.86609e-08 0.0
1.24049e-07 -2.18247e-07 0.0
-5.12764e-08 1.29973e-07 0.0
-6.61286e-08 2.1156e-07 0.0
3.24704e-08 1.31504e-07 0.0
6.87581e-08 1.37388e-09 0.0
1.08024e-08 1.40249e-07 0.0
-3.66864e-07 5.5924e-07 0.0
-1.86243e-07 -1.6295e-08 0.0
2.64865e-07 -6.69028e-07 0.0
1.71053e-07 -3.18179e-07 0.0
8.1185e-09 -1.78933e-07 0.0
8.46003e-08 -1.57828e-07 0.0
2.65036e-07 -6.44054e-08 0.0
-2.15157e-07 3.15321e-07 0.0
-4.32959e-07 8.21052e-07 0.0
3.37228e-07 -6.8469e-08 0.0
1.46535e-07 -4.04053e-07 0.0
-3.18553e-07 5.18437e-07 0.0
-3.58594e-09 9.78583e-08 0.0
-5.23455e-08 -5.03635e-07 0.0
-7.50519e-08 -2.26495e-07 0.0
4.04422e-08 -6.29079e-08 0.0
1.15387e-07 -2.39379e-07 0.0
3.68035e-07 -4.46696e-07 0.0
1.43984e-07 2.34243e-07 0.0
-2.47977e-07 7.4084e-07 0.0
-1.82886e-07 2.97532e-07 0.0
-2.53508e-08 8.30095e-08 0.0
-2.90231e-08 -5.23127e-08 0.0
-1.04193e-07 -5.08685e-08 0.0
-3.94332e-08 -1.19327e-07 0.0
1.34578e-07 -4.98543e-07 0.0
-9.01947e-09 -4.41619e-08 0.0
-1.9679e-07 2.81254e-07 0.0
1.88376e-07 -3.26619e-07 0.0
4.54447e-07 -3.37068e-07 0.0
5.93377e-08 2.22277e-07 0.0
-2.77256e-07 5.09345e-07 0.0
-7.75997e-08 2.98859e-07 0.0
-9.08367e-10 -9.00788e-08 0.0
-4.47442e-07 2.81252e-07 0.0
-1.11055e-07 1.63517e-07 0.0
5.05875e-07 -8.64167e-07 0.0
1.80774e-08 -3.91484e-07 0.0
-1.04853e-07 4.13909e-07 0.0
1.11176e-07 -8.61432e-08 0.0
-2.06634e-08 -2.34432e-07 0.0
1.48997e-07 8.87638e-08 0.0
-1.17365e-08 2.9821e-07 0.0
-6.94197e-08 1.30756e-07 0.0
1.14243e-07 -5.36245e-08 0.0
-2.30627e-07 4.02942e-07 0.0
-3.01525e-07 2.72753e-07 0.0
-2.59537e-08 -3.0247e-07 0.0
2.4269e-07 -5.08345e-07 0.0
2.15604e-07 -4.09325e-07 0.0
-8.05313e-08 1.9123e-07 0.0
4.9308e-08 1.07885e-07 0.0
1.64126e-07 -3.04077e-07 0.0
-1.02859e-07 2.22045e-07 0.0
-4.96665e-08 2.73483e-07 0.0
-1.748e-07 3.92939e-07 0.0
0 0 0.0
-8.31081e-08 1.57881e-07 0.0
1.87978e-07 -6.51875e-07 0.0
6.90213e-08 1.28943e-07 0.0
6.54085e-08 5.40485e-07 0.0
-1.00676e-07 1.30322e-07 0.0
-1.6265e-07 -3.578e-07 0.0
1.83862e-07 -3.13639e-07 0.0
-3.16978e-08 7.91615e-08 0.0
-4.66463e-08 -1.66372e-07 0.0
1.55888e-07 -1.80772e-07 0.0
-3.10753e-08 4.89529e-07 0.0
-7.81736e-08 3.80148e-07 0.0
-5.08699e-08 -1.63968e-07 0.0
-3.98839e-08 -2.51782e-07 0.0
5.37962e-08 8.44575e-08 0.0
7.85444e-08 2.61162e-07 0.0
-1.12843e-07 -1.8561e-07 0.0
-1.37823e-07 -7.28529e-08 0.0
1.97193e-07 6.67186e-08 0.0
3.37355e-08 -4.23178e-07 0.0
-1.06953e-07 -2.51555e-07 0.0
3.10493e-07 -1.93286e-08 0.0
1.13487e-07 2.93494e-07 0.0
-3.17502e-07 7.11753e-07 0.0
-1.33151e-07 5.18382e-08 0.0
-3.92299e-09 -2.1687e-07 0.0
-9.91539e-08 2.0275e-07 0.0
1.73152e-08 -2.029e-07 0.0
1.07403e-07 -4.93089e-07 0.0
1.06993e-07 -1.05915e-09 0.0
1.00865e-07 2.16789e-07 0.0
-1.08394e-07 -2.28237e-07 0.0
2.62213e-08 -4.36341e-07 0.0
1.97077e-07 1.74075e-07 0.0
-1.22569e-07 5.49251e-07 0.0
-9.37177e-08 2.09877e-07 0.0
-5.31997e-08 2.05491e-07 0.0
-1.70865e-07 3.25934e-07 0.0
1.26615e-08 -1.60488e-07 0.0
1.08666e-08 -6.31688e-07 0.0
7.2769e-08 -5.02773e-07 0.0
2.31677e-07 7.1751e-08 0.0
4.92898e-08 1.56412e-07 0.0
-1.78097e-07 -1.2566e-07 0.0
-1.44254e-08 1.68964e-07 0.0
2.08254e-07 1.82388e-07 0.0
-1.45425e-07 7.43845e-08 0.0
-1.12891e-07 2.46675e-07 0.0
2.37124e-07 4.28351e-08 0.0
-1.92092e-07 3.10672e-07 0.0
-2.69178e-07 1.12543e-07 0.0
8.40581e-08 -8.49585e-07 0.0
6.54696e-08 -4.23388e-07 0.0
1.21563e-07 1.50313e-07 0.0
1.01786e-07 -1.22402e-07 0.0
2.97649e-08 2.5829e-08 0.0
9.42828e-08 4.35729e-07 0.0
-4.88209e-08 4.23821e-07 0.0
-1.55019e-07 -1.70228e-07 0.0
3.73585e-08 -2.30967e-07 0.0
1.7034e-08 3.71531e-07 0.0
-1.89525e-07 2.00055e-07 0.0
-9.64945e-08 -2.56517e-07 0.0
-3.75174e-08 -2.70152e-07 0.0
6.4656e-08 -2.07747e-07 0.0
2.3692e-07 -2.5342e-07 0.0
7.41008e-08 -3.00614e-07 0.0
1.15098e-07 1.88577e-07 0.0
1.54164e-07 6.67158e-07 0.0
-2.31922e-07 2.9295e-07 0.0
-3.03932e-07 -4.38446e-08 0.0
5.86855e-08 -4.75822e-08 0.0
7.46827e-08 -1.15775e-07 0.0
-2.24619e-07 1.69899e-08 0.0
7.43854e-08 -1.77861e-07 0.0
2.34257e-07 -2.66251e-07 0.0
-1.61133e-07 2.48959e-07 0.0
5.54599e-08 -2.1985e-07 0.0
1.91031e-07 -5.78185e-07 0.0
1.84315e-08 4.02004e-07 0.0
6.2943e-08 6.04802e-07 0.0
-1.82064e-07 1.09147e-07 0.0
-1.43436e-07 2.87504e-08 0.0
4.87286e-08 7.83194e-08 0.0
-9.80384e-08 -1.30335e-07 0.0
1.78643e-08 -5.85449e-07 0.0
1.43762e-07 -1.75607e-07 0.0
2.96771e-08 4.03054e-07 0.0
-6.56241e-08 8.73069e-08 0.0
-6.87384e-08 -1.22025e-07 0.0
2.45912e-08 -9.91206e-08 0.0
1.49377e-07 9.4197e-08 0.0
9.1159e-08 1.3348e-07 0.0
-1.17054e-07 -9.21752e-08 0.0
2.57041e-08 2.39279e-07 0.0
3.87028e-08 2.09441e-07 0.0
-3.08412e-07 -2.9062e-07 0.0
-6.7318e-08 -3.16416e-07 0.0
2.81616e-07 -1.95532e-07 0.0
-2.14102e-08 2.51923e-07 0.0
-1.48403e-07 3.73574e-07 0.0
1.65973e-07 -2.00652e-07 0.0
5.61193e-08 3.06776e-08 0.0
-1.11027e-07 2.4927e-07 0.0
1.36189e-07 -4.88628e-07 0.0
3.20185e-08 -3.07355e-07 0.0
-4.35491e-08 5.05059e-07 0.0
-3.21376e-08 2.76142e-07 0.0
-2.69294e-07 -2.11068e-07 0.0
1.37312e-08 -1.61622e-07 0.0
1.60135e-07 9.13703e-08 0.0
-2.42249e-08 -1.0854e-08 0.0
1.10473e-07 -1.7777e-07 0.0
4.9286e-08 2.55936e-07 0.0
-3.95229e-08 3.03243e-07 0.0
-7.66358e-08 -1.81619e-07 0.0
-1.13174e-07 -3.74762e-07 0.0
1.1132e-07 -2.66278e-07 0.0
1.50088e-07 2.01353e-07 0.0
-6.72348e-08 1.85414e-07 0.0
-1.32291e-07 -2.26009e-08 0.0
1.02868e-07 2.82995e-07 0.0
1.81075e-08 6.7484e-08 0.0
-2.54315e-07 -1.67188e-07 0.0
1.44169e-07 -1.46734e-07 0.0
1.97846e-07 -3.16347e-08 0.0
-2.43214e-07 4.52656e-07 0.0
-4.75136e-08 -1.01214e-07 0.0
1.43458e-07 -6.56942e-07 0.0
7.11902e-09 6.29288e-08 0.0
1.00204e-07 5.17764e-08 0.0
1.02364e-07 -2.91671e-07 0.0
-7.42464e-08 3.28314e-07 0.0
-4.30387e-08 6.9829e-07 0.0
-1.6298e-07 1.86706e-07 0.0
-2.39949e-07 -3.42305e-07 0.0
1.37224e-07 -2.02315e-07 0.0
1.40597e-07 1.9487e-08 0.0
-1.26653e-08 -2.02196e-07 0.0
9.85318e-08 -2.1953e-07 0.0
3.11473e-08 2.21728e-08 0.0
4.86911e-08 8.67236e-09 0.0
-3.24715e-08 -1.052e-07 0.0
-8.50571e-08 -8.90959e-08 0.0
1.31625e-07 3.28115e-07 0.0
-4.13236e-08 6.80857e-07 0.0
-2.80755e-07 1.69641e-07 0.0
-8.88627e-08 -2.15913e-07 0.0
1.81831e-07 -1.91438e-07 0.0
1.42004e-08 -3.63232e-07 0.0
-7.06313e-08 -3.33169e-07 0.0
3.15055e-07 -2.98615e-07 0.0
4.08427e-08 1.9418e-07 0.0
-2.53249e-07 5.83951e-07 0.0
9.03446e-08 -2.67765e-07 0.0
5.57755e-09 -1.65107e-07 0.0
-1.66965e-08 6.18441e-07 0.0
8.20258e-08 1.44114e-07 0.0
-1.61393e-07 -9.65479e-08 0.0
-9.38711e-08 1.59721e-07 0.0
1.59088e-08 -9.59806e-09 0.0
-1.18329e-07 -4.9398e-07 0.0
3.2127e-08 -6.56083e-07 0.0
2.77541e-07 -3.2272e-08 0.0
1.22362e-07 3.06447e-07 0.0
-5.36339e-08 1.92312e-07 0.0
-1.56273e-08 2.06983e-07 0.0
-1.07161e-08 1.49677e-07 0.0
-8.03183e-09 1.81712e-07 0.0
-1.45709e-07 -2.16787e-08 0.0
-1.11183e-07 -1.89456e-07 0.0
9.73475e-08 2.18255e-07 0.0
-1.29701e-07 1.11728e-07 0.0
-1.78525e-07 -4.75596e-07 0.0
2.31818e-07 -5.01746e-07 0.0
3.12265e-07 -1.65517e-07 0.0
9.72958e-11 1.99495e-07 0.0
2.08388e-08 2.12942e-07 0.0
1.36518e-07 1.52025e-07 0.0
-2.72591e-07 6.45763e-07 0.0
-2.35827e-07 2.59769e-07 0.0
4.62869e-08 -6.65398e-07 0.0
-1.00915e-07 -1.0102e-07 0.0
1.20219e-07 2.74969e-07 0.0
7.61123e-08 -2.9046e-07 0.0
-1.4494e-07 -2.53152e-07 0.0
1.8643e-07 -4.3072e-08 0.0
1.19557e-07 -2.74573e-08 0.0
-6.86252e-08 -1.35331e-07 0.0
8.00984e-08 3.73722e-08 0.0
5.26424e-08 5.78181e-07 0.0
-1.08294e-07 4.13992e-07 0.0
-2.1994e-07 1.2684e-08 0.0
-7.43617e-08 -3.23313e-07 0.0
8.88744e-08 -3.26983e-07 0.0
6.10058e-08 9.42232e-08 0.0
6.82498e-08 -2.88538e-07 0.0
1.37014e-07 -3.06153e-07 0.0
-1.08579e-07 3.85928e-07 0.0
-1.5694e-07 6.90704e-09 0.0
0 0 0.0
-6.68567e-08 3.94482e-07 0.0
2.4393e-08 -2.7176e-07 0.0
-2.33799e-07 -4.1526e-07 0.0
-1.74625e-07 1.05689e-07 0.0
3.2362e-07 4.94078e-07 0.0
1.06049e-07 -3.03632e-08 0.0
-2.15101e-07 -1.49101e-07 0.0
1.55589e-07 -9.58492e-09 0.0
1.00464e-07 -6.19407e-08 0.0
-1.35856e-07 -3.99546e-07 0.0
-7.39749e-08 -1.11324e-07 0.0
4.64053e-08 3.90378e-07 0.0
1.73281e-07 2.1518e-07 0.0
8.64325e-09 -1.71556e-07 0.0
-2.38699e-07 -1.68954e-07 0.0
-4.55893e-08 2.81068e-07 0.0
2.13611e-07 1.31669e-07 0.0
-1.30616e-07 -1.56929e-07 0.0
-2.20287e-07 3.57454e-07 0.0
2.77112e-07 5.57876e-08 0.0
1.22915e-07 -4.99641e-07 0.0
-2.55999e-07 -3.30175e-07 0.0
1.57856e-08 -3.12782e-07 0.0
2.6887e-07 1.6051e-07 0.0
7.05701e-08 4.34681e-07 0.0
-1.34648e-07 1.61655e-08 0.0
-9.00129e-08 2.4257e-07 0.0
-6.68617e-09 3.61299e-07 0.0
-5.37475e-08 -2.15309e-07 0.0
-2.56132e-07 -2.84301e-07 0.0
1.22957e-08 1.97103e-07 0.0
4.20583e-07 8.69105e-08 0.0
-2.45197e-08 -4.91696e-07 0.0
-1.47305e-07 -4.15742e-07 0.0
1.82852e-07 3.86817e-08 0.0
8.91123e-09 1.00235e-07 0.0
-6.16364e-08 1.02583e-07 0.0
-1.01692e-07 4.17004e-07 0.0
-3.90017e-08 5.59363e-07 0.0
1.54409e-07 7.35095e-08 0.0
-1.57086e-07 -4.71409e-07 0.0
-2.487e-07 -2.65437e-07 0.0
1.88746e-07 1.03186e-07 0.0
2.67052e-07 -2.21415e-07 0.0
-1.52581e-07 -1.98355e-07 0.0
-9.65828e-08 1.74739e-07 0.0
2.92176e-07 -1.23023e-07 0.0
-6.10233e-08 -7.66339e-08 0.0
-2.60721e-07 1.12186e-07 0.0
1.18872e-07 1.5225e-07 0.0
1.5887e-07 6.29242e-07 0.0
-4.51827e-09 1.49885e-07 0.0
-1.85087e-07 -4.71398e-07 0.0
-1.46321e-07 -2.70062e-08 0.0
1.2029e-07 -9.19002e-08 0.0
-2.41645e-08 -4.30146e-07 0.0
-1.71842e-07 -1.08773e-07 0.0
2.3371e-07 3.25103e-07 0.0
3.11795e-07 9.43814e-08 0.0
-1.51441e-07 -3.53853e-07 0.0
-9.87296e-08 4.09672e-08 0.0
1.03493e-07 4.24383e-07 0.0
-1.76493e-08 2.50049e-07 0.0
-7.34184e-08 1.08823e-07 0.0
-2.215e-07 4.60958e-08 0.0
-2.17043e-08 -8.07987e-09 0.0
1.7428e-07 -4.58636e-07 0.0
-2.02851e-07 -6.38716e-07 0.0
-3.61171e-08 7.46904e-08 0.0
4.30444e-07 3.04003e-07 0.0
1.87444e-07 1.84212e-08 0.0
-2.38622e-07 1.67144e-07 0.0
-6.17868e-08 1.60699e-07 0.0
1.43144e-07 4.53384e-08 0.0
-2.40216e-07 1.36223e-07 0.0
-2.04061e-07 -9.59315e-08 0.0
1.31329e-07 4.24953e-08 0.0
9.1133e-08 2.31929e-07 0.0
3.76111e-08 -5.55538e-07 0.0
-1.59968e-07 -5.50562e-07 0.0
1.56621e-08 2.62407e-07 0.0
3.18104e-07 1.75379e-07 0.0
-8.73965e-08 1.79962e-08 0.0
-1.36226e-07 2.90679e-07 0.0
2.02583e-07 3.39735e-07 0.0
8.64677e-09 -1.65273e-07 0.0
-2.32926e-07 -4.60623e-07 0.0
-8.82452e-08 5.62244e-08 0.0
9.95131e-08 2.41847e-07 0.0
1.00097e-07 2.252e-08 0.0
-8.65148e-08 -1.11964e-07 0.0
-1.90704e-07 -1.00341e-07 0.0
1.53019e-07 7.86273e-08 0.0
1.75194e-07 -2.40242e-07 0.0
-2.21692e-07 -1.28097e-07 0.0
1.03933e-07 4.6105e-07 0.0
3.84261e-07 1.28765e-07 0.0
-1.08188e-07 -1.52591e-07 0.0
-3.29872e-07 -1.24192e-07 0.0
-1.0295e-08 -1.42968e-07 0.0
6.05323e-08 2.29124e-07 0.0
-1.74786e-07 1.22401e-07 0.0
-3.77782e-08 -1.47234e-07 0.0
1.46384e-07 2.48513e-07 0.0
1.36773e-07 1.57476e-08 0.0
5.06278e-08 -6.43385e-07 0.0
-1.7198e-07 -1.38457e-07 0.0
1.6194e-07 4.67592e-07 0.0
2.59796e-07 1.09003e-07 0.0
-3.00588e-07 -9.0827e-08 0.0
-1.445e-07 1.3026e-07 0.0
8.66526e-08 7.08149e-08 0.0
-1.02619e-07 -2.539e-07 0.0
-9.19879e-08 -1.48819e-07 0.0
9.72898e-09 3.00463e-07 0.0
2.3453e-07 2.55295e-07 0.0
1.73321e-07 -9.72076e-08 0.0
-2.07506e-07 -3.30951e-07 0.0
-1.2645e-07 -1.23394e-07 0.0
2.21913e-07 1.05067e-07 0.0
2.12288e-08 -1.86655e-07 0.0
-2.67976e-07 9.91976e-08 0.0
1.55311e-07 3.58e-07 0.0
2.34863e-07 -7.54315e-08 0.0
-2.73857e-07 -8.64551e-08 0.0
-1.79496e-07 -1.1625e-07 0.0
1.35469e-07 1.45894e-07 0.0
7.14202e-08 4.89722e-07 0.0
-5.1549e-08 -2.07033e-07 0.0
-4.67024e-08 -3.13679e-07 0.0
7.07805e-08 8.81452e-08 0.0
1.52087e-07 -3.96281e-07 0.0
-6.21603e-08 -4.85822e-07 0.0
-1.39629e-07 3.05457e-07 0.0
2.74997e-07 6.07086e-07 0.0
8.18473e-08 1.16766e-07 0.0
-3.8571e-07 -3.94228e-08 0.0
-7.51611e-08 1.83538e-07 0.0
5.44088e-08 -4.49686e-10 0.0
-2.46086e-08 -2.15341e-07 0.0
1.22469e-08 -1.28637e-07 0.0
3.59718e-08 -1.23581e-08 0.0
3.04369e-07 -9.48133e-08 0.0
6.68962e-08 -3.92064e-07 0.0
-3.19264e-07 -2.84505e-07 0.0
2.20593e-08 3.58347e-07 0.0
2.21672e-07 4.71836e-07 0.0
-1.44404e-07 1.73621e-07 0.0
-2.55183e-07 2.74019e-07 0.0
1.68743e-07 6.70211e-08 0.0
8.91274e-08 -2.75695e-07 0.0
-2.58122e-07 -3.25374e-07 0.0
4.80724e-08 -3.61011e-07 0.0
2.02008e-07 2.15693e-07 0.0
8.63864e-08 2.09287e-07 0.0
-2.26226e-08 -5.09869e-07 0.0
-1.73978e-07 1.63232e-08 0.0
8.18862e-08 3.76658e-07 0.0
1.45537e-07 -8.91054e-08 0.0
-2.04325e-07 1.25811e-07 0.0
-3.58677e-08 5.21686e-07 0.0
2.57266e-07 2.42168e-07 0.0
-1.11991e-07 -4.01775e-07 0.0
-3.16265e-07 -4.10837e-07 0.0
2.58552e-08 -7.06916e-08 0.0
1.39565e-07 -1.18275e-07 0.0
9.26106e-08 -5.6308e-08 0.0
-1.01613e-08 -2.39017e-09 0.0
4.38981e-08 1.12363e-07 0.0
2.81722e-07 1.61748e-07 0.0
-1.25454e-07 -1.6905e-07 0.0
-3.34576e-07 1.484e-07 0.0
1.51884e-07 5.82343e-07 0.0
1.07224e-07 1.52871e-07 0.0
-2.83649e-07 -2.1792e-07 0.0
-1.60278e-07 -3.12094e-07 0.0
2.10445e-07 -3.49974e-07 0.0
7.67058e-08 -2.08521e-07 0.0
-6.46971e-08 -2.28571e-07 0.0
1.99258e-07 9.75731e-08 0.0
1.54453e-07 6.79691e-07 0.0
4.18762e-08 1.06914e-07 0.0
-1.80785e-07 -3.45196e-07 0.0
-3.13323e-07 3.43668e-07 0.0
1.5597e-07 2.46624e-07 0.0
4.26027e-08 -2.58113e-07 0.0
-2.66309e-07 -6.29426e-08 0.0
1.42932e-07 2.33416e-08 0.0
2.21623e-07 -2.79584e-07 0.0
-1.03167e-07 -4.64196e-07 0.0
-1.19152e-07 -4.21761e-08 0.0
1.20947e-07 3.84376e-07 0.0
1.9865e-07 3.47545e-07 0.0
2.49247e-08 1.26378e-07 0.0
-2.44621e-07 -8.28561e-08 0.0
-4.33704e-08 5.11425e-08 0.0
8.43202e-08 1.17747e-07 0.0
2.75698e-08 -4.35171e-07 0.0
2.14143e-07 -6.2488e-07 0.0
5.838e-07 -6.60531e-07 0.0
0 0 0.0
1.02807e-08 2.31093e-07 0.0
2.21178e-07 4.24788e-07 0.0
2.79826e-07 -3.2165e-07 0.0
-2.80905e-07 -3.31713e-07 0.0
-5.53916e-07 4.06713e-07 0.0
2.1701e-07 3.23884e-07 0.0
1.27848e-07 -1.70475e-07 0.0
-2.68379e-07 -3.07924e-08 0.0
1.71539e-07 2.00866e-07 0.0
2.91675e-07 -1.60508e-07 0.0
-4.83867e-08 -4.42991e-07 0.0
-2.20244e-07 -1.93325e-08 0.0
-9.69125e-08 3.16548e-07 0.0
2.6842e-07 4.33533e-08 0.0
2.20605e-07 -3.13333e-07 0.0
-2.60326e-07 -7.0575e-08 0.0
-1.21195e-07 3.53975e-07 0.0
1.98269e-07 -5.93182e-08 0.0
-1.80137e-07 -6.92319e-08 0.0
-2.94434e-07 5.64088e-07 0.0
1.98788e-07 1.57738e-07 0.0
3.62193e-07 -3.40498e-07 0.0
-9.99814e-08 -3.41408e-07 0.0
-3.28167e-07 -2.76476e-07 0.0
1.46618e-07 5.71793e-08 0.0
2.40266e-07 -6.33959e-08 0.0
-9.44529e-08 -1.55482e-07 0.0
-7.37174e-08 3.91593e-07 0.0
1.76972e-07 3.58304e-07 0.0
1.22299e-07 -1.98019e-07 0.0
-5.07716e-07 1.50125e-08 0.0
-2.94125e-07 5.17586e-07 0.0
4.75662e-07 2.62115e-08 0.0
7.70025e-08 -5.46639e-07 0.0
-1.24864e-07 -2.57599e-07 0.0
1.74698e-07 -6.82654e-08 0.0
5.21896e-08 -2.34823e-07 0.0
-3.7799e-08 -1.32842e-07 0.0
-2.26507e-07 3.44766e-07 0.0
-4.0048e-08 5.77398e-07 0.0
3.7817e-07 8.07451e-08 0.0
-2.3797e-08 -3.02595e-07 0.0
-3.97607e-07 1.06431e-07 0.0
-1.47686e-08 2.15227e-07 0.0
2.56396e-07 -3.22469e-07 0.0
-8.50298e-08 -1.51724e-07 0.0
-1.4933e-07 1.7487e-07 0.0
3.01409e-07 -1.87781e-07 0.0
1.819e-07 -2.56893e-07 0.0
-3.4436e-07 -1.38653e-07 0.0
-2.51711e-07 1.9364e-07 0.0
2.50777e-07 5.05784e-07 0.0
2.73563e-07 -7.33252e-08 0.0
-1.16206e-07 -1.44051e-07 0.0
-1.28909e-07 3.56241e-07 0.0
1.87455e-07 -1.78561e-08 0.0
-6.11989e-08 -3.92948e-07 0.0
-5.07823e-07 4.83266e-08 0.0
6.83187e-08 3.26167e-07 0.0
4.6843e-07 -2.71694e-07 0.0
-6.0134e-08 -5.33473e-07 0.0
-9.29243e-08 1.38458e-08 0.0
3.96855e-08 1.98714e-07 0.0
7.25616e-08 1.07612e-07 0.0
9.60508e-08 1.46274e-07 0.0
-2.42309e-07 3.58123e-07 0.0
5.93103e-08 3.51607e-07 0.0
2.8106e-07 -3.52308e-07 0.0
-3.50581e-07 -4.63281e-07 0.0
-3.94878e-07 1.47749e-07 0.0
1.73046e-07 -7.91619e-11 0.0
3.60162e-07 -3.25072e-07 0.0
-3.23758e-08 -3.44632e-08 0.0
-6.717e-08 1.33014e-07 0.0
3.24006e-07 7.08501e-08 0.0
-1.96167e-08 4.28774e-08 0.0
-3.94031e-07 5.98872e-08 0.0
-9.26953e-08 4.24587e-07 0.0
2.68162e-07 2.42811e-07 0.0
1.64443e-07 -5.69684e-07 0.0
-3.32781e-07 -2.76967e-07 0.0
-1.56837e-07 2.39922e-07 0.0
2.83911e-07 -1.72362e-07 0.0
-1.09235e-07 -2.02935e-07 0.0
-2.04559e-07 3.19865e-07 0.0
3.55952e-07 3.01386e-07 0.0
2.83234e-07 -2.95132e-07 0.0
-1.54014e-07 -3.02072e-07 0.0
-2.06843e-07 2.06245e-07 0.0
-7.65493e-08 2.27545e-07 0.0
1.90277e-07 2.3249e-08 0.0
1.48557e-08 -8.4853e-08 0.0
-3.27133e-07 1.4585e-07 0.0
1.40047e-07 1.32126e-07 0.0
1.59527e-07 -4.52863e-07 0.0
-3.86852e-07 -1.25802e-07 0.0
-9.51581e-08 3.65693e-07 0.0
4.58153e-07 -7.44612e-08 0.0
3.56593e-07 -2.52608e-07 0.0
-1.9021e-07 -9.93641e-08 0.0
-1.4936e-07 1.04582e-07 0.0
1.56391e-07 2.47436e-07 0.0
-2.23704e-07 7.25058e-10 0.0
-3.3534e-07 1.11698e-07 0.0
3.216e-08 4.35036e-07 0.0
2.99585e-07 -1.57017e-07 0.0
8.19429e-08 -6.92425e-07 0.0
-3.75297e-07 -3.67534e-08 0.0
1.25955e-07 2.86008e-07 0.0
4.28459e-07 -2.06382e-07 0.0
-1.29061e-07 -8.34765e-08 0.0
-4.0217e-08 3.28481e-07 0.0
1.57707e-07 1.13891e-07 0.0
-7.77324e-08 -2.41851e-07 0.0
-2.68444e-07 -4.16228e-08 0.0
-3.20401e-07 3.3183e-07 0.0
1.16824e-07 2.17454e-07 0.0
4.18051e-07 -1.89596e-07 0.0
-6.84872e-08 -2.94277e-07 0.0
-2.10634e-07 1.00466e-07 0.0
2.6854e-07 1.22834e-09 0.0
7.68935e-08 -3.77217e-07 0.0
-3.51413e-07 1.51824e-07 0.0
4.45721e-08 3.09089e-07 0.0
4.09065e-07 -1.50078e-07 0.0
6.13643e-09 -1.77487e-07 0.0
-4.1769e-07 -4.94758e-08 0.0
-1.04546e-07 3.66051e-07 0.0
1.93974e-07 3.32886e-07 0.0
-6.76764e-08 -2.04431e-07 0.0
-1.08019e-07 8.15859e-08 0.0
1.54966e-07 1.64074e-07 0.0
2.87477e-07 -5.65438e-07 0.0
-1.353e-07 -5.58878e-07 0.0
-3.79787e-07 2.38601e-07 0.0
3.09332e-07 3.02831e-07 0.0
2.88019e-07 -1.60508e-07 0.0
-2.25452e-07 1.05028e-07 0.0
-6.44985e-08 3.99422e-07 0.0
-6.1039e-08 1.18867e-07 0.0
-5.1249e-08 -7.27753e-08 0.0
-1.45315e-07 -8.33216e-09 0.0
-1.82215e-07 1.31981e-07 0.0
4.47102e-07 -1.27665e-07 0.0
3.48976e-07 -6.20696e-07 0.0
-3.2963e-07 -3.27803e-07 0.0
-1.61411e-07 2.92389e-07 0.0
2.44141e-07 1.32645e-07 0.0
-2.13431e-08 2.35805e-08 0.0
-3.10248e-07 4.32768e-07 0.0
1.31127e-07 2.73872e-07 0.0
3.00668e-07 -1.34198e-07 0.0
-2.28571e-07 -2.66295e-07 0.0
-3.21361e-07 -1.10803e-07 0.0
1.1809e-07 3.12499e-07 0.0
3.0254e-07 -1.21065e-07 0.0
1.75827e-08 -5.20126e-07 0.0
-1.79256e-07 1.45522e-07 0.0
8.99795e-08 1.22348e-07 0.0
1.43237e-07 -3.53667e-07 0.0
-3.16892e-07 6.73689e-08 0.0
-1.54304e-07 5.79165e-07 0.0
4.43715e-07 2.19983e-07 0.0
1.44334e-07 -2.79346e-07 0.0
-2.29881e-07 -2.19935e-08 0.0
-1.57783e-07 1.3766e-07 0.0
-7.3874e-08 -7.17275e-08 0.0
1.18544e-07 -1.64465e-07 0.0
-1.53915e-07 -1.53953e-07 0.0
-6.70822e-08 8.93605e-08 0.0
5.32207e-07 -1.53058e-07 0.0
3.36356e-08 -4.70476e-07 0.0
-4.36353e-07 2.26402e-07 0.0
4.61761e-08 5.99164e-07 0.0
3.1037e-07 1.55523e-07 0.0
-5.50654e-08 3.10251e-08 0.0
-3.03495e-07 1.06957e-07 0.0
1.08791e-07 -5.85674e-08 0.0
9.17081e-08 -3.32364e-07 0.0
-3.31053e-07 -4.27456e-07 0.0
-9.91705e-08 5.20592e-08 0.0
2.92661e-07 3.35876e-07 0.0
3.73549e-07 -2.95804e-07 0.0
-4.31207e-08 -2.38457e-07 0.0
-2.9741e-07 5.22029e-07 0.0
1.46902e-07 2.22872e-07 0.0
3.6598e-08 -1.55324e-07 0.0
-3.42965e-07 2.03814e-07 0.0
4.89943e-08 2.36583e-07 0.0
2.92363e-07 -2.808e-07 0.0
-2.90825e-08 -5.05942e-07 0.0
-2.68269e-07 -5.71653e-08 0.0
-1.69932e-07 1.8176e-07 0.0
2.37042e-07 1.25913e-07 0.0
2.58609e-07 -6.05089e-08 0.0
-1.37749e-07 -9.71596e-08 0.0
-3.83233e-08 3.50205e-07 0.0
3.62951e-07 -1.1616e-07 0.0
-4.77073e-07 5.02892e-08 0.0
4.97697e-07 4.00911e-07 0.0
0 0 0.0
-1.37459e-07 -3.57431e-07 0.0
-1.72099e-07 2.59077e-07 0.0
2.03862e-07 6.43953e-08 0.0
6.17154e-07 -4.90081e-07 0.0
4.08372e-08 -3.34869e-07 0.0
-4.97597e-07 6.27046e-07 0.0
7.98519e-08 3.19273e-07 0.0
1.8686e-08 -2.14125e-07 0.0
-3.95849e-07 1.73132e-07 0.0
7.0077e-09 3.04227e-07 0.0
2.80183e-07 -2.89442e-07 0.0
1.26882e-07 -3.68441e-07 0.0
-1.3657e-07 8.17818e-08 0.0
-2.26323e-07 2.7855e-07 0.0
1.70382e-07 -5.84273e-08 0.0
3.11423e-07 -4.86566e-07 0.0
-8.62335e-08 -3.10392e-08 0.0
-5.90608e-08 2.8787e-07 0.0
1.38232e-07 -2.36828e-07 0.0
-1.13315e-07 1.03487e-07 0.0
-3.85275e-07 5.62943e-07 0.0
-1.35441e-07 2.08395e-07 0.0
4.37564e-07 -1.21158e-07 0.0
1.73578e-07 -3.77857e-07 0.0
-3.28027e-07 -4.33414e-08 0.0
3.69646e-08 1.72483e-07 0.0
1.87489e-07 -4.09451e-07 0.0
-7.46976e-08 -2.84381e-07 0.0
-1.60141e-07 3.06811e-07 0.0
2.10681e-07 1.17773e-07 0.0
4.16194e-07 -3.22174e-07 0.0
-4.14027e-07 2.23445e-07 0.0
-4.53147e-07 8.20511e-07 0.0
2.64008e-07 2.7446e-08 0.0
1.46529e-08 -4.38293e-07 0.0
-4.49168e-08 -2.24148e-08 0.0
1.66324e-07 -1.42179e-07 0.0
1.22531e-07 -3.70283e-07 0.0
7.50022e-08 -2.23675e-07 0.0
-2.94294e-07 2.16514e-07 0.0
-1.89218e-07 4.61806e-07 0.0
3.28816e-07 -9.84755e-08 0.0
1.77798e-07 -2.91307e-07 0.0
-2.19817e-07 3.3848e-07 0.0
-1.54593e-07 2.58844e-07 0.0
1.43406e-07 -2.24804e-07 0.0
-1.87071e-08 -5.63659e-09 0.0
-2.62949e-07 1.17732e-07 0.0
1.91828e-07 -8.65444e-08 0.0
4.39644e-07 -3.17398e-07 0.0
-1.71878e-07 -2.94869e-07 0.0
-4.33801e-07 3.86204e-07 0.0
3.16523e-08 3.1544e-07 0.0
2.30128e-07 -4.15167e-07 0.0
-2.81632e-08 -7.66305e-08 0.0
-8.72448e-08 3.72158e-07 0.0
3.3928e-07 -5.04601e-08 0.0
1.57009e-07 -2.88048e-07 0.0
-5.58744e-07 3.83039e-07 0.0
-1.36816e-07 5.20818e-07 0.0
2.99932e-07 -4.05112e-07 0.0
-1.22947e-08 -4.39791e-07 0.0
7.36159e-10 3.50632e-10 0.0
-8.32592e-08 -6.07313e-08 0.0
3.71222e-08 -6.02776e-08 0.0
1.32882e-07 -8.57789e-08 0.0
-2.40639e-07 3.19053e-07 0.0
1.1551e-07 3.92876e-07 0.0
4.33441e-07 -3.33092e-07 0.0
-3.58472e-08 -1.03495e-07 0.0
-4.14278e-07 4.31322e-07 0.0
-2.32058e-07 7.01923e-08 0.0
2.14743e-07 -2.85053e-07 0.0
-4.68821e-08 -2.32498e-07 0.0
-1.93013e-07 -1.51506e-08 0.0
3.80391e-07 -2.04893e-08 0.0
2.53253e-07 -2.77865e-07 0.0
-2.89675e-07 6.16e-08 0.0
-2.39589e-07 6.45419e-07 0.0
2.27086e-07 9.92552e-08 0.0
3.24294e-07 -5.3024e-07 0.0
-2.07992e-07 5.19327e-08 0.0
-1.98781e-07 3.50155e-07 0.0
1.9595e-07 -2.08585e-07 0.0
-2.06292e-07 -1.86475e-07 0.0
-3.91624e-07 4.05347e-07 0.0
1.96919e-07 1.21153e-07 0.0
3.3456e-07 -5.22827e-07 0.0
1.32191e-07 -2.35812e-07 0.0
-5.59619e-08 1.24512e-07 0.0
-1.87869e-07 1.69303e-07 0.0
1.83767e-07 9.67345e-09 0.0
8.72527e-08 -1.58024e-07 0.0
-2.95937e-07 3.6919e-07 0.0
1.15873e-07 2.14046e-07 0.0
1.8214e-07 -3.75769e-07 0.0
-3.11344e-07 1.52336e-07 0.0
-4.31703e-07 3.37007e-07 0.0
1.00194e-07 -1.46445e-07 0.0
5.18573e-07 -4.63853e-07 0.0
2.55176e-09 -3.94078e-07 0.0
-3.88965e-08 1.59552e-07 0.0
3.50658e-07 1.09263e-07 0.0
-6.78753e-08 -1.4401e-07 0.0
-3.885e-07 4.35189e-07 0.0
-2.04394e-07 6.27886e-07 0.0
2.4405e-07 -1.88347e-07 0.0
1.58086e-07 -5.08946e-07 0.0
-4.34631e-07 1.8914e-07 0.0
-4.54389e-08 1.86527e-07 0.0
2.84338e-07 -4.69698e-07 0.0
-7.19612e-08 -1.8627e-07 0.0
8.66273e-08 2.2443e-07 0.0
2.72596e-07 -9.18896e-08 0.0
1.79324e-07 -2.09135e-07 0.0
-6.21169e-08 1.19842e-07 0.0
-4.75076e-07 4.22511e-07 0.0
-2.2623e-07 3.56807e-07 0.0
2.86254e-07 -2.29387e-07 0.0
-2.72559e-09 -2.812e-07 0.0
-1.96976e-07 2.68303e-07 0.0
2.30164e-07 -1.15234e-07 0.0
2.02831e-07 -3.89124e-07 0.0
-2.60767e-07 1.83571e-07 0.0
-1.88281e-07 1.75104e-07 0.0
4.1022e-07 -1.80722e-07 0.0
3.33479e-07 -4.04919e-07 0.0
-3.46438e-07 -3.87092e-08 0.0
-1.95255e-07 5.96502e-07 0.0
9.68317e-08 1.2643e-07 0.0
-1.53682e-07 -1.37722e-07 0.0
-1.95066e-07 4.07007e-07 0.0
7.18994e-08 1.69616e-07 0.0
4.38263e-07 -5.67128e-07 0.0
2.55752e-08 -4.38278e-07 0.0
-4.30979e-07 2.94302e-07 0.0
1.45589e-07 3.24049e-08 0.0
2.00004e-07 -4.5337e-07 0.0
-3.72512e-08 6.57308e-08 0.0
5.70581e-08 2.80829e-07 0.0
-7.05052e-08 1.40174e-07 0.0
5.52221e-08 1.40229e-07 0.0
-1.92536e-07 1.39514e-07 0.0
-4.4626e-07 3.70429e-07 0.0
2.49905e-07 -4.8001e-08 0.0
4.66696e-07 -7.51925e-07 0.0
-7.3365e-08 -2.78688e-07 0.0
-1.91155e-07 2.36808e-07 0.0
1.60395e-07 -1.18789e-07 0.0
8.37077e-08 -9.05364e-08 0.0
-3.61612e-07 3.41452e-07 0.0
-3.3421e-08 3.01484e-07 0.0
4.45109e-07 -9.05769e-08 0.0
-1.501e-08 -3.04584e-07 0.0
-4.10058e-07 2.39548e-07 0.0
-6.37777e-08 4.61771e-07 0.0
2.13137e-07 -3.62882e-07 0.0
7.12317e-08 -3.67943e-07 0.0
-9.1738e-08 2.37114e-07 0.0
1.22585e-07 -5.19364e-08 0.0
2.37888e-07 -4.14973e-07 0.0
-3.26174e-07 6.37104e-08 0.0
-3.46148e-07 5.22694e-07 0.0
2.48005e-07 -4.14067e-08 0.0
2.12434e-07 -3.44218e-07 0.0
9.57955e-08 1.02549e-07 0.0
-8.59471e-08 1.77462e-07 0.0
-1.33454e-07 1.88311e-07 0.0
1.71198e-07 -3.2992e-08 0.0
-2.71981e-07 -8.55005e-08 0.0
-2.67578e-07 2.76529e-07 0.0
4.57007e-07 -3.68843e-07 0.0
2.06189e-07 -6.71204e-07 0.0
-3.23562e-07 1.97287e-07 0.0
-1.97357e-07 3.68543e-07 0.0
2.77242e-07 -1.79044e-08 0.0
1.5603e-07 -3.39101e-08 0.0
-2.55209e-07 2.5181e-07 0.0
1.90106e-07 2.61728e-07 0.0
2.61612e-07 -2.48194e-07 0.0
-3.36271e-07 -2.43509e-07 0.0
-3.74539e-07 3.61083e-07 0.0
-6.1097e-09 1.08333e-07 0.0
3.19349e-07 -6.32641e-07 0.0
9.94818e-08 -2.50019e-07 0.0
-1.60901e-07 3.63797e-07 0.0
1.83909e-07 3.36868e-08 0.0
1.0773e-07 -1.40397e-07 0.0
-2.85545e-07 3.36356e-07 0.0
-4.21669e-08 3.26172e-07 0.0
2.44777e-07 -2.54534e-07 0.0
1.50743e-07 -3.05307e-07 0.0
-1.08955e-07 3.19003e-08 0.0
-4.34293e-07 2.68294e-07 0.0
2.09267e-08 7.40351e-08 0.0
2.12387e-07 -2.84594e-07 0.0
-2.7289e-07 -5.88217e-09 0.0
1.80794e-07 4.02073e-07 0.0
6.02294e-07 -6.58235e-07 0.0
3.41784e-07 -1.43058e-06 0.0
0 0 0.0
2.52099e-08 -9.62369e-09 0.0
-1.44078e-07 1.35581e-09 0.0
-2.71173e-07 3.48911e-07 0.0
-1.78958e-07 -7.03324e-08 0.0
4.82348e-07 -7.81731e-07 0.0
2.76869e-07 -4.54376e-07 0.0
-1.48553e-07 4.19515e-07 0.0
2.02039e-07 1.8552e-07 0.0
3.69272e-08 -1.33397e-07 0.0
-3.02512e-07 3.88273e-07 0.0
-1.3281e-07 3.52016e-07 0.0
-2.29579e-08 -2.68185e-07 0.0
8.93615e-08 -2.42401e-07 0.0
1.79555e-08 1.80068e-07 0.0
-2.03748e-07 3.2612e-07 0.0
1.2112e-08 -1.12334e-07 0.0
1.76677e-07 -4.94748e-07 0.0
1.15055e-07 -7.73747e-08 0.0
7.10407e-08 -3.00485e-08 0.0
4.68763e-08 -3.16879e-07 0.0
1.60069e-07 1.83968e-07 0.0
-2.51492e-07 4.91356e-07 0.0
-4.6995e-07 3.36246e-07 0.0
2.24489e-07 -5.08226e-08 0.0
1.64994e-07 -3.38171e-07 0.0
-1.61971e-07 1.63315e-07 0.0
8.04868e-08 1.84377e-07 0.0
9.89966e-08 -3.72302e-07 0.0
5.08576e-08 -2.02711e-07 0.0
-2.09406e-07 1.48695e-07 0.0
1.5379e-08 -1.61358e-07 0.0
4.56818e-07 -5.29913e-07 0.0
-1.60974e-07 2.43274e-07 0.0
-2.62522e-07 8.43089e-07 0.0
6.0416e-08 8.33884e-08 0.0
-1.526e-07 -1.53394e-07 0.0
4.20744e-09 1.25272e-07 0.0
6.41826e-08 -1.67374e-07 0.0
8.92124e-08 -3.87994e-07 0.0
2.19948e-07 -2.34734e-07 0.0
-1.25902e-07 2.28774e-07 0.0
-2.10292e-07 3.27895e-07 0.0
3.01066e-08 -2.55576e-07 0.0
1.58044e-07 -2.6441e-07 0.0
6.49841e-08 2.64152e-07 0.0
-1.89921e-07 1.76798e-07 0.0
5.07621e-08 -4.17092e-08 0.0
1.34409e-07 9.43152e-08 0.0
-3.39664e-07 1.35124e-07 0.0
-3.84624e-08 -3.35016e-08 0.0
4.36158e-07 -4.29254e-07 0.0
4.15908e-08 -2.44296e-07 0.0
-1.9643e-07 5.1359e-07 0.0
-9.14424e-08 2.3815e-07 0.0
1.83668e-08 -3.62614e-07 0.0
-2.13078e-08 -6.65485e-08 0.0
-1.97686e-07 1.65345e-07 0.0
2.59418e-07 -2.6652e-07 0.0
3.05513e-07 -3.39345e-07 0.0
-2.74911e-07 5.26764e-07 0.0
-5.07604e-08 5.4739e-07 0.0
2.88511e-08 -2.97461e-07 0.0
-2.76799e-08 -1.87206e-07 0.0
1.38145e-07 3.54035e-08 0.0
-1.55933e-07 -5.16866e-08 0.0
-1.91836e-08 -8.79794e-08 0.0
6.37228e-08 -1.3687e-07 0.0
-2.32659e-07 2.49114e-07 0.0
-2.17803e-08 6.99148e-08 0.0
2.25334e-07 -4.82703e-07 0.0
3.41712e-07 -5.44279e-08 0.0
-2.73737e-08 4.12995e-07 0.0
-3.07322e-07 2.83661e-07 0.0
1.63269e-07 -1.18019e-08 0.0
-9.12299e-08 -1.10937e-07 0.0
-3.86655e-07 7.52392e-08 0.0
1.67706e-07 -1.30209e-07 0.0
2.22524e-07 -4.51568e-07 0.0
-8.43791e-08 7.72434e-08 0.0
-1.64041e-07 5.47896e-07 0.0
3.57308e-08 -9.96071e-08 0.0
3.0488e-07 -5.33803e-07 0.0
2.52551e-08 5.33618e-08 0.0
-6.29911e-08 2.7693e-07 0.0
2.14431e-07 -1.59359e-07 0.0
-1.49077e-07 6.62548e-08 0.0
-3.57712e-07 6.25473e-07 0.0
-8.89189e-08 1.10478e-07 0.0
-3.47766e-08 -4.81051e-07 0.0
2.12392e-07 -2.28504e-07 0.0
1.33687e-07 -2.68327e-08 0.0
-1.51808e-07 6.06546e-08 0.0
1.7517e-07 -1.49809e-07 0.0
1.17074e-07 -2.13769e-07 0.0
-1.19586e-07 2.84582e-07 0.0
2.57289e-08 2.54344e-08 0.0
1.46391e-07 -1.88116e-07 0.0
7.30003e-08 3.94932e-07 0.0
-4.77059e-07 5.32873e-07 0.0
-2.79996e-07 1.5338e-07 0.0
3.11584e-07 -4.48659e-07 0.0
-1.01373e-07 -4.72495e-07 0.0
7.34579e-09 -2.14269e-08 0.0
3.92265e-07 -2.92533e-07 0.0
1.28453e-07 -3.00179e-07 0.0
-6.20971e-08 4.47311e-07 0.0
-2.22364e-07 5.60768e-07 0.0
6.9739e-08 -1.47085e-07 0.0
1.73675e-07 -2.53969e-07 0.0
-2.88814e-07 4.43631e-07 0.0
-1.06581e-07 2.82943e-07 0.0
-4.31049e-09 -3.35558e-07 0.0
-1.67789e-07 -7.81701e-08 0.0
6.01635e-08 2.60352e-08 0.0
1.1127e-07 -4.09901e-07 0.0
2.64611e-07 -4.06889e-07 0.0
3.4426e-07 9.28574e-10 0.0
-1.724e-07 4.28119e-07 0.0
-2.68723e-07 4.3486e-07 0.0
4.41104e-08 -1.10987e-07 0.0
-6.05301e-08 -6.38159e-08 0.0
-1.98666e-07 2.88635e-07 0.0
-3.59361e-08 -1.32713e-07 0.0
2.27891e-07 -2.17141e-07 0.0
-1.20176e-08 1.79646e-07 0.0
-3.48164e-07 1.52851e-07 0.0
2.59225e-07 -2.63629e-07 0.0
4.11983e-07 -6.56509e-07 0.0
-1.28825e-07 -7.05983e-08 0.0
2.2876e-08 4.78314e-07 0.0
1.03619e-08 5.73095e-09 0.0
-1.71822e-07 8.80565e-08 0.0
-2.03716e-07 5.45157e-07 0.0
-2.05393e-07 1.78637e-07 0.0
2.90825e-07 -4.85669e-07 0.0
1.58331e-07 -2.63519e-07 0.0
-1.75809e-07 3.74377e-07 0.0
9.19973e-08 -8.79389e-08 0.0
-2.71484e-08 -4.7438e-07 0.0
6.91401e-08 -5.70382e-08 0.0
1.10145e-07 -2.42221e-08 0.0
-1.2059e-07 9.83858e-10 0.0
1.88942e-07 1.29682e-07 0.0
-2.7562e-08 3.06322e-07 0.0
-4.29127e-07 6.02164e-07 0.0
-7.63902e-08 4.2615e-08 0.0
2.27177e-07 -6.06985e-07 0.0
1.43357e-07 -2.17378e-07 0.0
-1.06125e-07 8.26994e-08 0.0
7.08797e-08 -1.81916e-07 0.0
2.46657e-07 -1.25265e-07 0.0
-2.84821e-07 2.38016e-07 0.0
-2.19098e-07 2.54147e-07 0.0
3.49327e-07 -2.3063e-07 0.0
7.56122e-08 -3.13967e-07 0.0
-1.94461e-07 4.44265e-07 0.0
-6.14321e-08 4.45493e-07 0.0
-4.59431e-08 -3.09376e-07 0.0
5.18264e-08 -1.74742e-07 0.0
-4.01006e-08 1.6787e-07 0.0
5.59978e-08 -1.71698e-07 0.0
3.12368e-07 -3.9794e-07 0.0
-1.03681e-07 1.859e-07 0.0
-2.27761e-07 5.22808e-07 0.0
-7.18371e-08 -1.49938e-07 0.0
-4.91251e-08 -3.35793e-07 0.0
2.48171e-07 -5.61163e-08 0.0
-3.30107e-08 1.45175e-08 0.0
-8.87689e-08 2.01813e-07 0.0
2.9117e-07 1.44212e-08 0.0
-1.62402e-07 1.63386e-07 0.0
-2.66623e-07 3.98262e-07 0.0
1.42355e-07 -3.7512e-07 0.0
2.22401e-07 -5.22995e-07 0.0
-3.72031e-08 1.54462e-07 0.0
-3.46939e-07 2.55271e-07 0.0
9.56437e-08 -8.89172e-08 0.0
1.45046e-07 -2.06701e-07 0.0
-2.77985e-07 1.58182e-07 0.0
2.12948e-07 1.35222e-07 0.0
3.57891e-07 -3.37648e-07 0.0
-5.19341e-08 1.69319e-08 0.0
-1.48823e-07 6.2665e-07 0.0
-2.15729e-07 1.61058e-07 0.0
-3.98545e-09 -4.99146e-07 0.0
5.59694e-08 -1.75319e-07 0.0
-1.32542e-07 1.71477e-07 0.0
9.60278e-08 -1.55607e-07 0.0
1.19733e-07 -1.65021e-07 0.0
-9.02529e-08 3.22965e-07 0.0
-1.91423e-08 2.02928e-07 0.0
2.30533e-08 -3.39372e-07 0.0
2.56233e-07 -2.50562e-07 0.0
1.74008e-07 4.59331e-08 0.0
-2.779e-07 3.61585e-07 0.0
-1.42688e-07 3.29275e-07 0.0
1.72026e-07 -4.7102e-07 0.0
-5.96604e-07 3.06483e-07 0.0
-3.62838e-08 4.86814e-07 0.0
5.31299e-07 5.86971e-07 0.0
0 0 0.0
5.68501e-08 1.53441e-07 0.0
-8.94375e-08 -1.27819e-07 0.0
1.66549e-08 4.55635e-07 0.0
-7.68045e-08 5.85169e-07 0.0
-3.80461e-07 1.08121e-07 0.0
3.09369e-08 -6.93677e-07 0.0
1.08872e-07 -3.9804e-07 0.0
-1.1725e-08 9.37652e-08 0.0
2.62974e-07 -2.77328e-07 0.0
1.27621e-07 -1.89964e-07 0.0
3.92314e-08 4.8748e-07 0.0
6.62467e-08 1.93839e-07 0.0
-1.90142e-07 -2.14342e-07 0.0
-1.44162e-07 -1.80136e-08 0.0
7.53075e-09 2.96777e-07 0.0
-6.52302e-08 4.10379e-07 0.0
-1.22853e-07 -6.25555e-08 0.0
-8.26717e-08 -2.35847e-07 0.0
2.36348e-07 -3.05028e-08 0.0
1.20725e-07 -4.93302e-07 0.0
-1.32137e-07 -3.80924e-07 0.0
3.50389e-07 1.16266e-07 0.0
1.15282e-07 2.2741e-07 0.0
-3.65947e-07 4.91176e-07 0.0
-2.66284e-08 -1.03815e-08 0.0
-7.4532e-08 -2.3684e-07 0.0
-7.07343e-08 3.76932e-07 0.0
8.60821e-09 4.52217e-08 0.0
-3.66728e-08 -2.53679e-07 0.0
2.57499e-07 6.5991e-08 0.0
-4.69737e-08 9.64763e-08 0.0
-1.17623e-07 -3.73457e-07 0.0
2.16901e-07 -6.66269e-07 0.0
-6.18472e-08 2.18759e-07 0.0
2.55504e-08 5.62151e-07 0.0
2.01036e-08 -2.08946e-08 0.0
-2.15874e-07 2.33032e-07 0.0
5.10695e-08 2.69207e-07 0.0
-1.26802e-08 -2.1225e-07 0.0
-9.08221e-08 -3.32311e-07 0.0
1.05113e-07 -1.98448e-07 0.0
1.34426e-07 2.61877e-07 0.0
4.61288e-08 1.85422e-07 0.0
-2.02366e-07 -3.07215e-07 0.0
4.55608e-09 -7.82761e-08 0.0
2.3126e-07 6.1059e-08 0.0
-2.12543e-07 -4.55296e-08 0.0
-6.55729e-08 1.52067e-07 0.0
2.68531e-07 1.125e-07 0.0
-1.66904e-07 1.97928e-07 0.0
-1.55576e-07 6.62743e-08 0.0
1.10533e-07 -6.10013e-07 0.0
4.68556e-08 -1.60532e-07 0.0
1.17005e-07 4.90324e-07 0.0
-5.26611e-08 3.85055e-08 0.0
-2.11462e-08 -8.53118e-08 0.0
8.38207e-08 1.70908e-07 0.0
-2.41801e-07 7.04715e-08 0.0
-7.92462e-09 -4.52618e-07 0.0
8.95016e-08 -3.62703e-07 0.0
-5.92302e-08 5.29786e-07 0.0
1.90712e-07 2.30398e-07 0.0
-8.30936e-08 -2.55047e-07 0.0
-5.85597e-08 7.7492e-08 0.0
2.30556e-07 -4.8439e-08 0.0
-7.61071e-08 -2.70646e-08 0.0
-7.3531e-08 -4.29486e-09 0.0
-1.10006e-08 6.49965e-08 0.0
-1.25444e-08 4.2101e-07 0.0
-1.30458e-07 -1.46268e-07 0.0
-2.68122e-07 -4.86303e-07 0.0
2.97931e-07 -1.27173e-07 0.0
2.24601e-07 -1.69725e-08 0.0
-1.68649e-07 2.12238e-07 0.0
2.56277e-07 8.40838e-08 0.0
9.6786e-08 -5.30211e-09 0.0
-2.38949e-07 3.35762e-07 0.0
-7.21854e-08 -1.29639e-07 0.0
-9.58419e-08 -4.1774e-07 0.0
-5.79726e-09 3.42121e-07 0.0
-3.20171e-08 4.4298e-07 0.0
-1.3359e-07 -2.50154e-07 0.0
1.38693e-07 -4.00246e-07 0.0
1.05788e-07 -6.11341e-08 0.0
5.44712e-08 -1.15648e-07 0.0
2.065e-07 -3.87018e-07 0.0
-1.76772e-08 2.31481e-07 0.0
7.74074e-10 7.36121e-07 0.0
-4.61806e-08 1.01467e-07 0.0
-3.77033e-07 -1.04525e-07 0.0
-2.72186e-08 -1.13668e-09 0.0
1.18739e-07 -7.75266e-08 0.0
-1.01834e-07 5.46815e-08 0.0
4.36942e-08 -2.6462e-07 0.0
1.37006e-07 -1.63631e-07 0.0
1.84134e-07 6.15842e-08 0.0
-9.67952e-08 -4.20695e-07 0.0
-4.209e-08 -1.62891e-07 0.0
3.70052e-07 2.99314e-07 0.0
-1.90808e-07 5.43099e-07 0.0
-2.73287e-07 5.54475e-07 0.0
9.60529e-08 -1.83763e-07 0.0
-2.31197e-07 -1.0355e-07 0.0
-7.02842e-08 5.41846e-08 0.0
6.99875e-08 -6.49771e-07 0.0
5.69757e-08 -3.72172e-07 0.0
2.64108e-07 3.22266e-07 0.0
-7.6977e-09 1.48895e-07 0.0
1.31235e-08 -3.18843e-07 0.0
1.193e-07 -1.15466e-07 0.0
-7.49212e-08 4.87572e-07 0.0
1.94524e-08 2.33257e-07 0.0
-1.58102e-07 1.10834e-08 0.0
-2.13069e-07 4.14162e-07 0.0
5.30711e-08 7.33519e-08 0.0
-1.54296e-07 -4.8417e-07 0.0
-7.82069e-08 -4.67461e-07 0.0
3.40883e-07 -3.06778e-07 0.0
2.30174e-07 1.45815e-07 0.0
5.85556e-09 2.19985e-07 0.0
-9.90322e-09 -1.13521e-07 0.0
7.40846e-08 2.05553e-07 0.0
-7.41852e-08 2.2546e-07 0.0
-3.6981e-07 -8.78967e-08 0.0
3.04019e-08 1.11561e-07 0.0
1.32827e-07 2.21959e-07 0.0
-3.03433e-07 3.10637e-07 0.0
8.12629e-08 -2.38306e-07 0.0
1.93185e-07 -8.16732e-07 0.0
1.39513e-08 -5.05019e-08 0.0
2.45569e-07 5.67504e-08 0.0
-5.79162e-09 -3.01938e-07 0.0
-7.59464e-09 3.37188e-07 0.0
4.60263e-09 5.92265e-07 0.0
-3.05011e-07 1.34808e-07 0.0
-5.73157e-08 -3.21787e-07 0.0
-3.44594e-08 1.1914e-08 0.0
4.28667e-08 3.85191e-07 0.0
1.60784e-07 -2.07461e-07 0.0
-1.52549e-07 -2.19316e-07 0.0
1.4278e-07 -3.67133e-08 0.0
1.75478e-07 -3.47555e-07 0.0
-1.95864e-07 -1.75724e-07 0.0
6.1494e-08 -5.81136e-08 0.0
1.39505e-07 2.88527e-07 0.0
-6.48866e-08 6.95939e-07 0.0
-2.1805e-07 8.61911e-08 0.0
-9.56673e-08 -2.74092e-07 0.0
1.95885e-07 -4.00344e-08 0.0
-9.81072e-08 -1.14276e-07 0.0
-8.29572e-08 -1.73437e-07 0.0
3.19716e-07 -1.12567e-07 0.0
-4.12023e-08 1.7277e-07 0.0
-1.58924e-07 2.50877e-07 0.0
1.18806e-07 -4.51699e-07 0.0
-5.84116e-08 -2.87982e-07 0.0
3.65427e-08 5.64157e-07 0.0
5.56203e-08 1.81031e-07 0.0
-1.8039e-07 -1.53638e-07 0.0
4.40854e-08 1.77318e-07 0.0
-1.24932e-08 5.87462e-08 0.0
-7.60569e-08 -3.41766e-07 0.0
1.1601e-07 -3.93725e-07 0.0
4.03314e-08 2.86628e-07 0.0
1.7215e-07 4.03919e-07 0.0
-8.45343e-08 -1.35355e-07 0.0
-2.66101e-07 -2.31607e-08 0.0
1.93764e-07 -1.50874e-07 0.0
-6.36733e-08 -1.46793e-07 0.0
-1.8139e-07 9.98244e-08 0.0
1.73116e-07 -1.30914e-07 0.0
9.67626e-08 3.23511e-07 0.0
-1.61168e-09 3.38051e-07 0.0
-1.39638e-07 -4.16771e-07 0.0
1.24209e-07 -2.41372e-07 0.0
2.04471e-07 1.15584e-07 0.0
-2.85717e-07 2.2717e-07 0.0
3.03865e-09 5.23344e-08 0.0
5.96635e-08 -1.53767e-07 0.0
-2.76999e-07 2.32203e-07 0.0
6.37341e-08 -1.18052e-07 0.0
7.95208e-08 -6.54148e-07 0.0
7.20163e-08 1.09559e-07 0.0
2.71004e-07 5.43913e-07 0.0
-3.90477e-08 4.3172e-09 0.0
-1.02824e-07 -1.49256e-07 0.0
1.60294e-08 1.05495e-07 0.0
-1.18153e-07 7.97749e-08 0.0
-9.43085e-08 -2.06849e-07 0.0
-9.96486e-08 -4.54612e-09 0.0
3.82599e-08 3.87344e-07 0.0
1.44383e-07 -3.20444e-09 0.0
-1.86911e-07 -3.56113e-07 0.0
1.08139e-07 -3.49681e-07 0.0
3.17469e-07 -1.69217e-07 0.0
-6.53096e-08 2.30042e-07 0.0
1.22015e-07 2.37047e-07 0.0
-1.97125e-08 1.57121e-08 0.0
-3.88722e-08 1.51263e-07 0.0
-8.13967e-07 3.61335e-08 0.0
0 0 0.0
2.01601e-07 -3.04194e-07 0.0
2.11317e-07 -2.67789e-07 0.0
-3.18662e-07 -2.18384e-07 0.0
3.81811e-08 4.91237e-07 0.0
2.90034e-07 6.11919e-07 0.0
-1.71323e-07 2.71187e-07 0.0
-2.03803e-07 -1.9021e-07 0.0
-1.27563e-07 -3.80609e-08 0.0
-4.31163e-08 3.69707e-08 0.0
-4.94058e-09 -4.82004e-07 0.0
-8.45983e-08 -2.84877e-07 0.0
2.55285e-07 2.64389e-07 0.0
4.05704e-07 -9.6886e-08 0.0
7.21469e-09 -3.49417e-07 0.0
-2.09074e-07 1.23584e-08 0.0
-9.69333e-08 4.24977e-07 0.0
1.01164e-07 4.01169e-07 0.0
-2.02268e-07 5.24709e-08 0.0
-3.36655e-07 2.39308e-07 0.0
3.21933e-07 1.20046e-07 0.0
9.93576e-08 -6.28765e-07 0.0
-3.38857e-07 -4.10894e-07 0.0
2.13474e-07 -6.97109e-08 0.0
2.53105e-07 -1.18289e-08 0.0
1.11761e-07 2.40152e-07 0.0
-1.58491e-09 -5.46363e-08 0.0
-2.63511e-07 6.6863e-08 0.0
1.05493e-07 3.67956e-07 0.0
-1.34962e-07 -3.09021e-08 0.0
-3.94503e-07 9.80612e-09 0.0
2.6186e-07 2.26531e-07 0.0
2.32498e-07 7.55099e-08 0.0
-1.27851e-08 -4.13031e-07 0.0
-3.91796e-08 -5.98628e-07 0.0
-7.02362e-08 1.36006e-07 0.0
1.76323e-07 1.97793e-07 0.0
-4.97802e-08 -1.33999e-07 0.0
-1.68352e-07 3.47974e-07 0.0
1.59108e-07 3.67603e-07 0.0
7.40839e-08 -1.34102e-07 0.0
-1.73615e-07 -3.1429e-07 0.0
-2.56683e-07 -4.55386e-08 0.0
1.56001e-07 2.99323e-07 0.0
3.4512e-07 -5.57413e-08 0.0
-2.47788e-07 -2.5603e-07 0.0
-5.23475e-08 1.10692e-07 0.0
3.31917e-07 -8.47667e-08 0.0
-2.1908e-07 -2.00109e-07 0.0
-2.05108e-07 1.55861e-07 0.0
1.41625e-07 1.83639e-07 0.0
9.4272e-08 2.55532e-07 0.0
1.051e-07 -3.03253e-09 0.0
-2.32695e-07 -4.69338e-07 0.0
-1.41046e-07 -1.90862e-08 0.0
2.88672e-07 1.80393e-07 0.0
-1.27544e-07 -1.26317e-07 0.0
-6.83314e-08 6.46624e-08 0.0
3.04345e-07 2.57896e-07 0.0
3.15585e-08 8.91023e-08 0.0
-1.08915e-07 -4.04222e-07 0.0
-2.69815e-07 -1.81545e-07 0.0
-5.53053e-08 4.92864e-07 0.0
2.46064e-07 3.33356e-09 0.0
-1.26069e-07 -2.50407e-07 0.0
-3.86065e-08 9.35488e-08 0.0
2.17741e-07 -9.32562e-08 0.0
9.97753e-08 -1.98918e-07 0.0
-1.17809e-07 -1.31624e-07 0.0
-1.81333e-07 3.21259e-07 0.0
3.41594e-07 5.06469e-07 0.0
6.22399e-08 -1.36276e-07 0.0
-5.3044e-07 -1.38023e-07 0.0
4.23992e-08 8.97026e-11 0.0
9.14925e-08 -2.22535e-07 0.0
-1.64926e-07 -5.60847e-08 0.0
1.54287e-07 -8.92893e-08 0.0
1.82058e-07 -1.0199e-08 0.0
2.80145e-07 1.90851e-07 0.0
5.05225e-08 -2.32857e-07 0.0
-4.09715e-07 -1.49293e-07 0.0
-2.4397e-09 5.13411e-07 0.0
9.00914e-08 4.08619e-07 0.0
-2.73617e-07 -5.24439e-08 0.0
-4.36771e-08 -1.05871e-07 0.0
1.10182e-07 -3.0864e-08 0.0
8.62808e-08 -3.71482e-07 0.0
1.80901e-09 -6.47253e-07 0.0
-8.17746e-08 8.23596e-08 0.0
3.25551e-07 4.77317e-07 0.0
2.46558e-07 -3.92136e-08 0.0
-2.64675e-07 6.49711e-08 0.0
-1.78194e-07 2.78999e-07 0.0
-1.87555e-08 1.67209e-07 0.0
-5.14678e-08 6.11216e-08 0.0
-2.68529e-07 -1.08966e-07 0.0
-6.58126e-09 1.33468e-07 0.0
5.14471e-07 -1.5046e-07 0.0
-1.0321e-07 -6.62139e-07 0.0
-2.43664e-07 -2.53928e-07 0.0
3.06093e-07 -1.73672e-08 0.0
1.94086e-08 2.57356e-07 0.0
1.45289e-08 4.2396e-07 0.0
-8.65776e-10 8.61097e-08 0.0
-1.26841e-07 3.48296e-07 0.0
1.35567e-07 1.70036e-07 0.0
-3.13179e-07 -4.52116e-07 0.0
-3.2818e-07 -1.11667e-07 0.0
2.97022e-07 2.04148e-07 0.0
1.47176e-07 -1.43071e-07 0.0
4.46958e-09 -5.06739e-07 0.0
6.04591e-08 -2.21362e-07 0.0
1.14461e-07 2.20571e-07 0.0
1.51834e-07 -4.99207e-08 0.0
-1.98874e-07 1.00695e-07 0.0
-1.19336e-07 7.13725e-07 0.0
2.0522e-07 3.54558e-07 0.0
-1.18131e-07 -2.17803e-07 0.0
-3.76085e-07 -2.41077e-07 0.0
-1.30947e-07 -1.75189e-07 0.0
2.45655e-07 -9.61066e-08 0.0
1.79382e-07 -2.49736e-07 0.0
-9.89465e-08 -1.99058e-07 0.0
3.4315e-07 1.5603e-07 0.0
3.23114e-07 -6.90171e-08 0.0
-4.12587e-07 -6.55112e-08 0.0
-1.81163e-07 3.148e-07 0.0
2.79585e-08 3.91684e-07 0.0
-1.24993e-07 4.82227e-07 0.0
3.69073e-08 -9.78634e-08 0.0
-1.89755e-07 -4.87086e-07 0.0
7.64752e-08 -3.39464e-08 0.0
3.19871e-07 -3.70427e-07 0.0
-2.04438e-07 -4.88035e-07 0.0
1.00823e-07 2.22377e-07 0.0
3.44451e-07 4.00241e-07 0.0
-4.12931e-08 6.6031e-08 0.0
-1.95043e-07 -1.80644e-07 0.0
-2.95088e-07 2.87361e-07 0.0
4.1098e-08 4.08658e-07 0.0
7.82608e-08 -1.99814e-07 0.0
-2.19049e-07 -4.00155e-09 0.0
1.81661e-07 8.4119e-08 0.0
2.89357e-07 -3.83807e-07 0.0
-6.28651e-08 -4.07431e-07 0.0
-2.2332e-07 -2.03728e-07 0.0
3.67571e-09 2.62695e-07 0.0
3.36029e-07 4.05118e-07 0.0
-1.28102e-07 3.22062e-08 0.0
-2.59045e-07 1.03122e-07 0.0
2.62022e-07 9.95681e-08 0.0
-8.6219e-08 -1.59748e-07 0.0
-2.78722e-07 -1.11272e-07 0.0
1.06898e-07 -4.97049e-08 0.0
9.36012e-08 1.74653e-07 0.0
1.91544e-07 9.59241e-08 0.0
-5.66528e-09 -5.10406e-07 0.0
-2.85891e-07 -1.43539e-07 0.0
2.0608e-07 3.92568e-07 0.0
8.01059e-08 -4.10573e-08 0.0
-2.74633e-07 7.32934e-10 0.0
1.26553e-07 3.48365e-07 0.0
1.28705e-07 1.09861e-07 0.0
-7.62171e-08 -3.73553e-07 0.0
-2.14069e-07 -3.63847e-07 0.0
-1.11851e-07 2.99523e-07 0.0
3.69861e-07 1.70909e-07 0.0
6.86648e-08 -1.96908e-07 0.0
-1.70026e-07 1.44079e-07 0.0
1.63273e-07 -2.10056e-09 0.0
2.62253e-08 -1.29981e-07 0.0
-2.12608e-07 -5.6532e-08 0.0
-2.86133e-07 -1.36691e-08 0.0
1.53551e-07 3.79131e-07 0.0
3.45577e-07 3.9551e-08 0.0
-2.73001e-07 -3.73532e-07 0.0
8.77053e-09 -1.1423e-07 0.0
2.89438e-07 -4.01305e-08 0.0
-1.37413e-07 1.16638e-07 0.0
1.27435e-08 9.54766e-08 0.0
-2.04477e-08 1.11765e-07 0.0
-3.36173e-08 4.13209e-07 0.0
1.0321e-07 -1.71858e-07 0.0
-3.89722e-07 -5.57116e-07 0.0
-1.62864e-07 1.17456e-07 0.0
3.90586e-07 2.02102e-07 0.0
8.78976e-08 -2.48374e-07 0.0
7.21088e-10 -1.20274e-07 0.0
1.79029e-07 1.78907e-07 0.0
8.75717e-08 4.97697e-08 0.0
-1.30291e-07 -1.97376e-07 0.0
-3.85929e-07 2.17011e-07 0.0
-1.12915e-08 5.83451e-07 0.0
2.34237e-07 1.67468e-08 0.0
-1.53042e-07 -2.65367e-07 0.0
-1.6994e-07 -2.12163e-07 0.0
2.64526e-07 -4.19511e-07 0.0
-8.37594e-09 7.85843e-08 0.0
1.3255e-07 -4.99541e-07 0.0
1.40085e-07 2.24504e-07 0.0
2.23875e-07 9.62203e-07 0.0
0 0 0.0
-1.44547e-07 -1.46099e-07 0.0
2.64676e-07 8.69204e-08 0.0
4.10634e-07 -8.42122e-07 0.0
-3.7852e-07 -3.58842e-07 0.0
-1.75531e-07 3.75972e-07 0.0
3.50173e-07 3.30819e-07 0.0
1.60925e-07 -7.4802e-08 0.0
-8.11868e-08 1.16873e-07 0.0
-1.38709e-07 4.95135e-07 0.0
5.59405e-08 1.30994e-07 0.0
-1.24059e-07 -3.82993e-07 0.0
-4.59852e-07 1.23484e-07 0.0
-1.78628e-08 1.46082e-07 0.0
4.50967e-07 -4.62762e-07 0.0
2.86841e-07 -5.43477e-07 0.0
-1.01414e-07 -1.65087e-07 0.0
-1.07633e-07 3.30968e-07 0.0
2.8806e-07 1.6259e-07 0.0
-1.54115e-07 3.60781e-08 0.0
-4.95231e-07 7.27005e-07 0.0
3.14105e-07 2.20923e-07 0.0
1.84066e-07 -4.52812e-07 0.0
-3.67937e-07 -9.81565e-08 0.0
-1.08756e-07 -2.28022e-07 0.0
3.58782e-08 -3.31151e-08 0.0
3.49351e-07 -7.72831e-08 0.0
1.38431e-07 -4.95223e-07 0.0
-2.25239e-07 3.24883e-07 0.0
3.36722e-07 3.22645e-07 0.0
-1.78352e-08 -2.66935e-07 0.0
-5.95289e-07 3.0662e-07 0.0
-7.13717e-08 5.32542e-07 0.0
2.56872e-07 2.51147e-08 0.0
2.03563e-07 -5.32419e-07 0.0
-1.08547e-07 -2.86295e-07 0.0
-1.07336e-07 2.13878e-07 0.0
2.38839e-07 -2.69306e-07 0.0
-8.65646e-08 -1.80322e-07 0.0
-2.35686e-07 4.1383e-07 0.0
1.42383e-07 2.16814e-07 0.0
3.05241e-07 -1.06752e-07 0.0
6.05466e-10 -2.58386e-07 0.0
-4.95959e-07 1.63112e-07 0.0
-3.57024e-08 3.97008e-07 0.0
4.08288e-07 -3.05845e-07 0.0
-2.27527e-07 -1.5442e-07 0.0
-8.00833e-08 2.4345e-07 0.0
4.11e-07 -2.63004e-07 0.0
-5.64921e-08 -1.68017e-07 0.0
-2.57378e-07 5.85785e-08 0.0
-1.5775e-07 1.46438e-07 0.0
1.22059e-07 4.4297e-07 0.0
4.08816e-07 -2.69009e-07 0.0
-2.25819e-07 -3.68055e-07 0.0
-2.46914e-07 4.40629e-07 0.0
2.94383e-07 -8.17979e-08 0.0
-1.84505e-07 -3.62321e-07 0.0
-2.68043e-07 2.18293e-07 0.0
2.10712e-07 2.54213e-07 0.0
3.50337e-07 -1.7087e-07 0.0
1.42015e-07 -4.53957e-07 0.0
-3.76628e-07 2.36835e-07 0.0
-1.34713e-07 4.71949e-07 0.0
1.94906e-07 -1.71929e-07 0.0
-1.60244e-07 2.21376e-08 0.0
-1.25575e-07 1.07159e-07 0.0
1.37004e-07 -1.29605e-07 0.0
2.9167e-07 -3.21243e-07 0.0
-1.24837e-07 -3.93836e-07 0.0
-4.26262e-07 4.02181e-07 0.0
4.243e-07 3.12936e-07 0.0
3.51131e-07 -2.8335e-07 0.0
-3.55117e-07 2.34519e-07 0.0
-2.05926e-08 2.11362e-07 0.0
-1.19696e-08 -1.43334e-08 0.0
-2.12587e-07 2.13155e-08 0.0
-1.66251e-07 -2.7188e-07 0.0
-9.81957e-08 9.49183e-08 0.0
5.09959e-07 -4.49765e-08 0.0
3.76525e-07 -7.8021e-07 0.0
-3.67815e-07 -1.52465e-08 0.0
-2.60773e-08 6.37745e-07 0.0
1.93448e-07 1.09944e-07 0.0
-2.24193e-07 9.21252e-08 0.0
-1.98228e-07 4.14021e-07 0.0
5.24323e-08 2.12225e-07 0.0
2.00466e-07 -4.53796e-07 0.0
-1.30793e-07 -5.29052e-07 0.0
-3.73623e-07 1.55133e-07 0.0
2.33955e-07 -3.44215e-08 0.0
4.12607e-07 -3.61714e-07 0.0
2.52661e-08 -9.84325e-09 0.0
-1.03585e-07 1.69009e-07 0.0
3.66439e-08 3.53466e-07 0.0
1.12348e-07 6.23116e-08 0.0
-4.87394e-07 9.67485e-08 0.0
-3.01591e-07 6.15343e-07 0.0
5.64911e-07 -2.01469e-07 0.0
4.3275e-08 -5.85853e-07 0.0
-2.5773e-07 -1.69654e-07 0.0
7.35097e-08 -2.40177e-07 0.0
-2.04331e-10 8.18391e-08 0.0
1.60154e-07 -1.05594e-07 0.0
-8.24685e-08 -7.69932e-08 0.0
-1.27746e-08 6.59591e-07 0.0
4.95432e-07 -1.19087e-08 0.0
-2.02844e-07 -3.33208e-07 0.0
-5.58994e-07 5.23005e-07 0.0
3.14348e-08 3.84491e-07 0.0
1.44778e-07 -2.93329e-07 0.0
-1.3624e-08 -4.10008e-07 0.0
-8.58153e-08 -7.44017e-08 0.0
1.71265e-07 -1.54999e-07 0.0
2.73449e-07 -5.25511e-07 0.0
-2.19649e-07 4.68796e-08 0.0
-1.5927e-07 5.57853e-07 0.0
3.33354e-07 2.30707e-07 0.0
2.25267e-07 6.04686e-08 0.0
-2.56475e-07 5.09349e-08 0.0
-4.25516e-07 2.51068e-07 0.0
5.34598e-08 1.62697e-07 0.0
7.86316e-08 -4.82203e-07 0.0
-3.73167e-07 -1.70472e-07 0.0
2.84847e-07 4.22571e-08 0.0
6.17473e-07 -5.59602e-07 0.0
-9.37273e-08 -2.38298e-07 0.0
-1.61417e-07 1.73621e-07 0.0
-1.24041e-07 4.75393e-07 0.0
1.33321e-08 6.07421e-07 0.0
1.2056e-07 -1.76344e-07 0.0
-3.94813e-07 1.26934e-07 0.0
3.49666e-08 3.51694e-07 0.0
3.34473e-07 -7.10804e-07 0.0
-3.57354e-07 -4.33086e-07 0.0
-1.31768e-07 2.46496e-07 0.0
3.58962e-07 -2.36677e-08 0.0
3.40154e-07 -3.15457e-07 0.0
-3.60703e-09 -1.14062e-07 0.0
-3.26401e-07 5.0012e-07 0.0
4.66782e-08 2.54947e-07 0.0
-7.90193e-09 -7.04168e-08 0.0
-3.61429e-07 3.12193e-07 0.0
1.34813e-08 9.69691e-08 0.0
3.56467e-07 -2.36487e-07 0.0
2.22542e-07 -4.51268e-07 0.0
-3.20864e-07 -3.34668e-07 0.0
-2.4536e-07 3.63919e-07 0.0
4.13132e-07 7.10968e-08 0.0
-1.05287e-08 -2.49224e-07 0.0
-2.70694e-07 3.28927e-07 0.0
3.09914e-07 1.48914e-07 0.0
8.34116e-08 -1.52418e-07 0.0
-2.60515e-07 -3.00527e-08 0.0
-2.08352e-07 4.66902e-08 0.0
-7.1859e-08 3.95716e-07 0.0
4.14752e-07 -1.48898e-07 0.0
8.62373e-08 -6.63771e-07 0.0
-3.75004e-07 2.66905e-07 0.0
2.31933e-07 1.73993e-07 0.0
1.18478e-07 -4.32246e-07 0.0
-3.4318e-07 2.06564e-07 0.0
1.43242e-08 4.34977e-07 0.0
2.76498e-07 2.79109e-09 0.0
1.98219e-07 -3.51249e-07 0.0
-3.10613e-07 -7.29436e-08 0.0
-3.53498e-07 3.63565e-07 0.0
2.48572e-07 -1.13239e-07 0.0
7.64539e-08 -1.75183e-07 0.0
-1.02345e-07 5.83562e-08 0.0
1.62597e-07 -5.37326e-08 0.0
2.83183e-07 2.22955e-08 0.0
5.13162e-09 -2.56314e-07 0.0
-5.80749e-07 1.87321e-07 0.0
-4.87438e-08 6.52051e-07 0.0
4.38926e-07 -2.40623e-07 0.0
-2.27035e-07 -3.008e-07 0.0
-7.99668e-08 3.57753e-08 0.0
2.12489e-07 -1.77426e-07 0.0
-1.02788e-08 -8.70671e-08 0.0
2.02621e-08 -1.75234e-07 0.0
-1.6179e-07 2.75972e-07 0.0
1.72822e-07 5.55154e-07 0.0
4.22037e-07 -3.73466e-07 0.0
-4.11843e-07 -1.6909e-07 0.0
-4.35265e-07 5.77737e-07 0.0
1.7889e-07 -6.86347e-08 0.0
1.33226e-08 -4.23745e-07 0.0
-8.29126e-08 -5.15285e-08 0.0
1.76614e-07 -2.57992e-09 0.0
3.91082e-07 -2.86732e-07 0.0
1.25938e-07 -2.86285e-07 0.0
-4.48737e-07 3.77104e-07 0.0
-1.52258e-07 5.78878e-07 0.0
2.47851e-07 1.32796e-07 0.0
-7.89339e-08 -8.23305e-09 0.0
-1.93499e-07 1.73621e-08 0.0
-5.94326e-08 -4.16316e-08 0.0
4.30577e-07 -3.94862e-07 0.0
-5.46439e-07 -2.36967e-07 0.0
5.08474e-08 -7.91702e-07 0.0
0 0 0.0
-1.24668e-07 4.30139e-07 0.0
-4.43193e-07 9.80324e-08 0.0
2.4089e-07 7.30502e-08 0.0
4.67525e-07 -6.75142e-07 0.0
-3.00017e-07 -2.96233e-07 0.0
-2.43982e-07 2.03612e-07 0.0
1.65818e-07 5.10944e-08 0.0
1.32047e-07 -3.37159e-07 0.0
1.44904e-09 -1.50771e-07 0.0
6.58717e-08 4.09655e-07 0.0
2.03504e-07 2.57269e-07 0.0
-1.09942e-08 -9.87699e-08 0.0
-3.60418e-07 4.3481e-07 0.0
-3.16223e-07 4.49393e-07 0.0
5.13918e-08 -3.40221e-07 0.0
3.35768e-07 -7.10329e-07 0.0
-3.67847e-09 -3.16921e-07 0.0
-1.09902e-07 1.55891e-07 0.0
3.63267e-07 -1.78949e-07 0.0
-1.77561e-08 -1.19185e-07 0.0
-4.01058e-07 7.31364e-07 0.0
1.31918e-07 2.66845e-07 0.0
2.36828e-07 -2.73579e-07 0.0
-2.93753e-08 1.42584e-07 0.0
-3.18877e-07 1.07936e-07 0.0
-2.27283e-07 7.48402e-08 0.0
3.39437e-07 -2.64256e-07 0.0
-2.55317e-08 -5.607e-07 0.0
-1.85527e-07 7.94001e-08 0.0
5.22052e-07 1.36999e-08 0.0
1.64048e-07 -2.32443e-07 0.0
-4.26454e-07 3.46484e-07 0.0
-2.08872e-07 6.03652e-07 0.0
5.52783e-08 1.80113e-07 0.0
1.31375e-07 -4.65303e-07 0.0
-2.57161e-08 -2.17495e-07 0.0
-5.41289e-09 2.6648e-07 0.0
1.2549e-07 -2.41105e-07 0.0
-2.89374e-08 -2.59694e-07 0.0
-1.81549e-07 2.92451e-07 0.0
-1.21558e-07 1.96208e-07 0.0
3.26372e-07 -2.51587e-07 0.0
2.9359e-07 -3.2849e-07 0.0
-4.00305e-07 3.5422e-07 0.0
-1.51654e-07 4.67476e-07 0.0
2.61115e-07 -3.1473e-07 0.0
-1.83131e-07 -9.10286e-08 0.0
-1.30135e-07 2.45195e-07 0.0
2.56355e-07 -2.96784e-07 0.0
2.18384e-07 -2.27812e-07 0.0
-8.65999e-08 7.75563e-08 0.0
-4.30059e-07 2.18573e-07 0.0
5.61561e-08 2.88424e-07 0.0
4.23091e-07 -3.48074e-07 0.0
-2.05601e-07 -2.55884e-07 0.0
-5.96422e-08 4.049e-07 0.0
3.14735e-07 1.37194e-08 0.0
-1.96134e-07 -1.82979e-07 0.0
-3.27381e-07 1.77378e-07 0.0
-3.08935e-08 2.16737e-07 0.0
2.48455e-07 -2.80247e-07 0.0
2.64996e-07 -6.25186e-07 0.0
-8.8673e-08 1.93239e-07 0.0
-1.00873e-07 5.08215e-07 0.0
3.1825e-08 -9.11469e-08 0.0
-1.52928e-08 5.10719e-08 0.0
-1.89034e-07 2.59612e-07 0.0
-8.81792e-08 4.53296e-08 0.0
4.17058e-07 -3.99515e-07 0.0
-2.50833e-08 -3.6139e-07 0.0
-5.23241e-07 3.99887e-07 0.0
1.85216e-07 2.38807e-08 0.0
3.24198e-07 -5.07498e-07 0.0
-5.04687e-08 1.17044e-07 0.0
2.93746e-08 2.45144e-07 0.0
7.5352e-08 1.5428e-07 0.0
4.35454e-08 2.30346e-07 0.0
-3.71885e-07 8.07922e-08 0.0
-4.30049e-07 2.41871e-07 0.0
3.8451e-07 -1.88453e-07 0.0
3.1751e-07 -8.64096e-07 0.0
-2.03815e-07 -2.25496e-07 0.0
1.17532e-07 3.35771e-07 0.0
1.66533e-07 6.1605e-09 0.0
-1.40666e-07 6.33e-09 0.0
-1.34469e-07 4.13222e-07 0.0
3.40496e-09 4.40039e-07 0.0
1.96275e-07 -2.18956e-07 0.0
-3.13935e-10 -2.96903e-07 0.0
-3.46384e-07 3.80228e-07 0.0
-1.60691e-07 2.48831e-08 0.0
2.10469e-07 -5.71197e-07 0.0
2.2241e-07 -3.4271e-07 0.0
-1.13207e-07 5.69345e-09 0.0
1.30489e-07 1.48845e-07 0.0
3.91332e-07 -1.06195e-07 0.0
-4.0833e-07 2.95907e-07 0.0
-4.25967e-07 7.75459e-07 0.0
3.07926e-07 -1.02831e-07 0.0
1.3657e-07 -3.67957e-07 0.0
-8.08109e-08 -6.02436e-09 0.0
-1.10097e-07 -8.97485e-08 0.0
1.90899e-08 2.8834e-08 0.0
1.35753e-07 -2.70578e-07 0.0
-3.17978e-07 -2.07042e-07 0.0
1.31825e-08 2.97498e-07 0.0
5.82055e-07 -2.43725e-07 0.0
5.5961e-09 -3.03907e-07 0.0
-2.90619e-07 5.50826e-07 0.0
-5.81851e-08 6.15145e-07 0.0
-3.35136e-08 -8.78056e-09 0.0
-3.86672e-08 -2.61311e-07 0.0
-9.51622e-08 1.01348e-07 0.0
5.11767e-08 -6.13157e-08 0.0
2.13296e-07 -6.36881e-07 0.0
-6.15576e-08 -1.73322e-07 0.0
-2.65042e-07 3.39074e-07 0.0
6.24416e-08 -4.57177e-08 0.0
4.6679e-07 -2.52115e-07 0.0
8.61456e-08 7.57772e-08 0.0
-3.7333e-07 5.59431e-07 0.0
1.0112e-07 3.87041e-07 0.0
2.98479e-08 -1.56103e-07 0.0
-5.65839e-07 1.59233e-07 0.0
-2.924e-08 1.503e-08 0.0
4.38153e-07 -7.27912e-07 0.0
1.84997e-07 -4.73102e-07 0.0
-3.11682e-08 -8.62008e-08 0.0
-1.70115e-07 2.8805e-07 0.0
1.66926e-07 3.96177e-07 0.0
8.86257e-08 -1.36681e-07 0.0
-3.68424e-07 3.14374e-07 0.0
1.41578e-07 4.92923e-07 0.0
2.35589e-07 -3.60137e-07 0.0
-3.07219e-07 -2.1334e-07 0.0
-2.28113e-07 2.48724e-07 0.0
1.59137e-08 -4.59572e-08 0.0
2.69785e-07 -6.02735e-07 0.0
2.21005e-07 -4.1234e-07 0.0
-8.63706e-08 4.07381e-07 0.0
3.45599e-08 2.17207e-07 0.0
5.72461e-08 -5.39337e-08 0.0
-2.36158e-07 4.20975e-07 0.0
-3.18846e-07 3.13601e-07 0.0
1.83112e-07 -1.82937e-07 0.0
4.74831e-07 -4.79154e-07 0.0
-2.45889e-07 -1.47117e-07 0.0
-3.13207e-07 3.74536e-07 0.0
3.25582e-07 -1.04806e-07 0.0
-4.43107e-08 -2.93566e-07 0.0
-2.50647e-07 2.1573e-07 0.0
2.29129e-07 1.57777e-08 0.0
2.39094e-07 -1.55589e-07 0.0
-9.19278e-09 2.80115e-08 0.0
-3.31862e-07 1.9297e-07 0.0
-2.07646e-07 4.57765e-07 0.0
3.37222e-07 -1.64686e-07 0.0
2.14581e-08 -5.85709e-07 0.0
-1.91081e-07 2.33236e-07 0.0
2.41479e-07 1.45091e-07 0.0
3.13162e-08 -3.8381e-07 0.0
-2.28496e-07 7.00983e-08 0.0
-1.11122e-07 3.73403e-07 0.0
1.02869e-07 -2.43068e-09 0.0
3.58412e-07 -4.65218e-07 0.0
-1.42312e-08 3.09581e-08 0.0
-3.2851e-07 5.72282e-07 0.0
-2.73732e-08 -3.42561e-08 0.0
7.41275e-08 -2.03771e-07 0.0
-1.41142e-07 2.19621e-08 0.0
-1.14548e-07 -9.89588e-08 0.0
4.65802e-07 -2.23931e-07 0.0
3.00802e-07 -3.28613e-07 0.0
-5.41396e-07 3.50515e-07 0.0
-1.06677e-07 6.1874e-07 0.0
2.93404e-07 -1.68289e-07 0.0
-1.71131e-07 -1.24332e-07 0.0
-7.54254e-08 8.29828e-08 0.0
9.22927e-08 -1.08311e-07 0.0
8.75349e-08 -1.34085e-07 0.0
-3.34457e-08 -2.91802e-07 0.0
-3.16317e-07 1.33889e-07 0.0
1.91163e-07 2.96697e-07 0.0
4.69487e-07 -4.52453e-07 0.0
-1.17198e-07 -8.50571e-08 0.0
-1.98098e-07 7.38324e-07 0.0
-2.49894e-08 2.58785e-07 0.0
-1.48597e-07 -2.34764e-07 0.0
-1.36856e-07 -4.44479e-08 0.0
-7.43052e-08 6.21886e-09 0.0
2.94064e-07 -4.90968e-07 0.0
3.58145e-07 -5.93922e-07 0.0
-1.47247e-07 2.53736e-07 0.0
-2.86132e-07 5.2804e-07 0.0
1.98683e-07 1.23256e-08 0.0
1.96028e-08 1.31628e-07 0.0
-2.0606e-07 6.74922e-08 0.0
-1.52529e-07 6.70167e-07 0.0
5.52887e-07 -5.66857e-07 0.0
1.42025e-07 -7.71179e-07 0.0
0 0 0.0
8.70927e-08 4.69421e-07 0.0
1.72566e-07 -8.33346e-08 0.0
-5.18684e-07 8.72943e-07 0.0
-7.63937e-08 1.26688e-08 0.0
4.24185e-07 -7.35448e-07 0.0
-8.27376e-08 2.4169e-08 0.0
-2.32736e-07 5.45377e-07 0.0
5.63566e-08 -2.3811e-07 0.0
7.8017e-08 -4.57033e-07 0.0
-1.51357e-07 3.08434e-08 0.0
-2.30448e-08 2.28394e-08 0.0
2.77615e-07 -4.69791e-07 0.0
1.41441e-07 1.16526e-07 0.0
-4.70452e-08 7.14146e-07 0.0
-1.63983e-07 4.32655e-07 0.0
-2.02259e-07 6.08041e-08 0.0
1.13742e-07 -3.36722e-07 0.0
-1.7568e-08 -2.54912e-07 0.0
-1.53041e-07 -5.14964e-08 0.0
2.81408e-07 -4.94911e-07 0.0
7.85786e-08 -5.36894e-09 0.0
-1.90187e-07 4.34804e-07 0.0
-1.40904e-08 -6.6706e-08 0.0
4.21513e-08 -8.48422e-09 0.0
2.73418e-07 -6.18762e-08 0.0
-9.83867e-08 2.73839e-07 0.0
-3.60736e-07 6.49671e-07 0.0
2.7847e-07 -4.35036e-07 0.0
-6.17068e-08 -3.26948e-07 0.0
-4.07431e-07 3.30421e-07 0.0
3.18473e-07 -6.10788e-07 0.0
3.42717e-07 -5.69969e-07 0.0
-1.26543e-07 5.47148e-07 0.0
-1.59617e-07 6.30504e-07 0.0
3.17082e-08 -8.56674e-08 0.0
1.7709e-08 -2.11925e-07 0.0
-1.38164e-07 2.38275e-07 0.0
6.30688e-08 -1.27565e-07 0.0
1.19181e-07 -3.43815e-07 0.0
-3.75631e-11 1.83991e-07 0.0
-2.55292e-08 1.90254e-07 0.0
-2.39969e-07 5.46992e-08 0.0
5.10195e-08 -2.67462e-07 0.0
3.31648e-07 -4.16443e-07 0.0
-1.37922e-07 3.35078e-07 0.0
-8.60792e-08 2.86607e-07 0.0
1.57073e-07 -1.5307e-07 0.0
-1.13939e-07 2.10082e-07 0.0
-1.2507e-07 4.70452e-08 0.0
-4.7914e-08 -2.06612e-07 0.0
2.01322e-07 -2.32444e-07 0.0
2.65583e-07 -2.24974e-07 0.0
-3.83933e-07 6.09314e-07 0.0
-1.31705e-07 2.70379e-07 0.0
3.69944e-07 -7.54509e-07 0.0
-2.19387e-07 1.18191e-07 0.0
-1.20732e-07 3.38106e-07 0.0
3.70869e-07 -4.68933e-07 0.0
4.45149e-08 5.69019e-08 0.0
-2.39453e-07 6.5139e-07 0.0
-1.65714e-07 1.81745e-07 0.0
6.76468e-08 -5.50181e-07 0.0
7.43654e-08 -3.41868e-07 0.0
8.91651e-09 1.3073e-07 0.0
9.4274e-08 -1.21489e-07 0.0
-2.45826e-08 8.62835e-08 0.0
6.45453e-08 2.48889e-07 0.0
-6.89303e-08 1.29014e-07 0.0
-2.66416e-07 2.0299e-07 0.0
2.89119e-07 -3.80155e-07 0.0
1.61399e-07 -1.54764e-07 0.0
-3.3742e-07 5.28115e-07 0.0
-2.69975e-08 -1.25176e-07 0.0
6.74355e-08 -3.82951e-07 0.0
2.42587e-08 -1.67825e-07 0.0
1.21233e-08 -1.11585e-07 0.0
1.04916e-08 1.6052e-07 0.0
3.64317e-07 -6.42131e-08 0.0
-5.54596e-08 3.73517e-07 0.0
-5.44246e-07 9.31228e-07 0.0
1.24126e-07 -3.52778e-07 0.0
1.97736e-07 -7.92118e-07 0.0
-2.54596e-07 1.94288e-07 0.0
8.60915e-08 -1.03951e-07 0.0
2.38007e-07 -4.93778e-07 0.0
-4.95467e-08 1.61713e-07 0.0
-1.34486e-07 4.56355e-07 0.0
-6.43451e-09 -1.39666e-08 0.0
1.4698e-07 -2.75615e-07 0.0
6.75557e-08 2.43669e-07 0.0
-3.8599e-08 3.85985e-07 0.0
-1.80225e-07 9.70295e-08 0.0
-1.12876e-07 -3.52488e-08 0.0
1.68245e-07 -4.32744e-07 0.0
-1.57187e-07 -1.87368e-07 0.0
-3.76228e-08 -8.04009e-08 0.0
4.77324e-07 -5.04766e-07 0.0
-6.59864e-08 3.74016e-07 0.0
-2.93192e-07 6.86421e-07 0.0
3.47254e-08 -8.80771e-08 0.0
5.4354e-08 -1.3592e-07 0.0
9.99006e-08 -1.05139e-07 0.0
-1.61869e-07 2.36728e-07 0.0
7.70037e-09 1.22867e-07 0.0
2.93149e-07 -4.47605e-07 0.0
-3.73214e-07 3.4687e-07 0.0
-2.5212e-07 2.04304e-07 0.0
4.10119e-07 -9.6075e-07 0.0
9.53635e-08 -2.62629e-07 0.0
-1.05867e-07 5.76247e-07 0.0
8.17755e-08 1.6891e-07 0.0
2.60797e-08 -2.1262e-09 0.0
-1.01058e-07 3.21969e-07 0.0
-1.06543e-07 2.42552e-07 0.0
2.39068e-08 -2.86523e-07 0.0
7.79532e-08 -2.38357e-07 0.0
5.67182e-08 9.29446e-08 0.0
-1.17345e-07 2.05714e-08 0.0
-2.5321e-07 -4.07467e-08 0.0
2.11331e-07 -4.3339e-07 0.0
2.61977e-07 -4.02673e-07 0.0
-2.20156e-07 4.64384e-07 0.0
1.6131e-07 2.22668e-07 0.0
2.48089e-07 1.16484e-08 0.0
-3.5577e-07 7.15705e-07 0.0
-2.37487e-07 2.21639e-07 0.0
2.53701e-08 -4.94008e-07 0.0
1.75397e-07 -5.54552e-07 0.0
8.62413e-08 -2.6429e-07 0.0
-2.36726e-07 3.5458e-07 0.0
2.26393e-07 -2.1959e-07 0.0
1.79527e-07 -2.87853e-07 0.0
-3.91925e-07 7.39013e-07 0.0
1.13366e-07 2.61148e-08 0.0
2.95267e-07 -4.61571e-07 0.0
-1.31361e-07 4.59417e-07 0.0
-1.51118e-07 4.79699e-07 0.0
-1.04478e-07 -1.65297e-07 0.0
-3.46227e-09 -4.46564e-07 0.0
4.81903e-08 -2.15948e-07 0.0
5.87301e-08 -1.48239e-07 0.0
8.91485e-08 -1.86002e-07 0.0
8.38856e-08 2.24577e-07 0.0
7.89865e-08 2.894e-07 0.0
-3.03462e-07 3.40515e-07 0.0
-1.86255e-07 1.20246e-07 0.0
4.14078e-07 -6.35547e-07 0.0
-2.54327e-08 -3.50061e-08 0.0
-2.74409e-07 5.15998e-07 0.0
2.34123e-07 -2.71195e-07 0.0
1.41277e-08 -1.27042e-07 0.0
-2.34741e-07 2.68139e-07 0.0
-2.17483e-08 -1.45927e-07 0.0
1.59728e-07 -3.25732e-07 0.0
2.71755e-07 -2.12728e-07 0.0
-1.81709e-07 4.9892e-07 0.0
-2.66122e-07 5.55055e-07 0.0
2.7186e-07 -5.33047e-07 0.0
-7.16355e-08 -1.08288e-07 0.0
-2.2483e-07 4.19163e-07 0.0
2.67279e-07 -4.45856e-07 0.0
8.85608e-08 -2.06872e-07 0.0
-1.2421e-07 4.49246e-07 0.0
-1.11579e-07 1.65546e-07 0.0
-7.61508e-08 -2.62475e-07 0.0
1.50327e-07 -3.40752e-07 0.0
1.33408e-07 4.30815e-08 0.0
-1.22611e-08 1.85174e-07 0.0
-9.5064e-08 2.36575e-07 0.0
5.15858e-08 1.6105e-07 0.0
-9.31806e-09 -1.07662e-07 0.0
-3.98251e-07 1.57227e-07 0.0
1.73568e-07 -4.03804e-07 0.0
4.66935e-07 -7.27871e-07 0.0
-2.72622e-07 5.36189e-07 0.0
-1.03583e-07 4.4994e-07 0.0
1.9997e-07 -2.76103e-07 0.0
-8.57501e-08 1.18596e-07 0.0
-8.02444e-08 1.77184e-07 0.0
-5.09943e-08 1.96614e-08 0.0
1.78634e-07 -2.61974e-07 0.0
9.36131e-08 -1.41157e-07 0.0
-4.08296e-07 5.32265e-07 0.0
-7.46314e-09 -2.18731e-07 0.0
3.27236e-07 -8.41763e-07 0.0
-6.51399e-08 2.08325e-07 0.0
4.71171e-08 3.75815e-07 0.0
1.42111e-07 -1.84215e-08 0.0
-8.95435e-08 3.54443e-07 0.0
-1.40094e-07 4.14967e-07 0.0
-1.71758e-07 -7.6638e-08 0.0
-3.00431e-08 -4.71473e-07 0.0
2.25511e-07 -4.52943e-07 0.0
7.69568e-08 -4.32879e-08 0.0
-1.09907e-07 1.71281e-07 0.0
-4.94759e-08 1.20371e-07 0.0
2.95611e-07 -1.51092e-07 0.0
-5.16524e-07 3.3118e-07 0.0
-6.85565e-08 3.22875e-07 0.0
2.30885e-07 8.64275e-07 0.0
0 0 0.0
-1.32664e-07 -5.15282e-07 0.0
3.08862e-08 2.87302e-07 0.0
2.491e-07 -7.15283e-08 0.0
3.52712e-08 3.2964e-07 0.0
-8.60898e-08 1.89564e-07 0.0
-6.00003e-08 -3.07876e-07 0.0
4.35905e-08 -1.74025e-07 0.0
8.55105e-08 4.60935e-07 0.0
-4.26881e-08 2.22623e-07 0.0
-3.75825e-08 -3.77671e-07 0.0
1.2727e-07 -1.57414e-07 0.0
-3.285e-08 1.91167e-07 0.0
-2.43836e-07 -4.6907e-07 0.0
-4.51319e-08 -3.70667e-07 0.0
2.48469e-07 4.98354e-07 0.0
5.41499e-08 4.87277e-07 0.0
-1.50506e-07 1.45131e-08 0.0
1.24976e-07 -1.39029e-07 0.0
1.15692e-07 8.98081e-08 0.0
-2.29946e-07 6.16427e-08 0.0
-8.73751e-08 -4.89737e-07 0.0
1.56809e-07 -2.39573e-08 0.0
6.87908e-08 3.64022e-07 0.0
-1.05344e-07 -2.89681e-07 0.0
-1.16419e-07 -1.36202e-07 0.0
1.04996e-07 5.2796e-08 0.0
6.31265e-08 2.2706e-08 0.0
-9.92271e-08 4.87616e-07 0.0
9.32463e-08 6.66309e-08 0.0
1.21431e-07 -2.40166e-07 0.0
-5.99744e-08 1.71095e-07 0.0
-1.40814e-07 -1.83584e-07 0.0
-1.10319e-07 -5.47718e-07 0.0
1.13947e-07 1.15134e-09 0.0
1.13474e-07 5.81023e-07 0.0
-9.88479e-08 9.25183e-08 0.0
7.74689e-09 -4.09902e-07 0.0
1.3345e-07 2.20572e-07 0.0
-7.05446e-08 1.97347e-07 0.0
-2.01754e-07 -3.99958e-07 0.0
1.01228e-07 9.5107e-09 0.0
2.48269e-07 3.74604e-07 0.0
-1.36381e-07 8.04291e-08 0.0
-1.75205e-07 -3.37211e-07 0.0
1.42112e-07 -3.003e-07 0.0
1.20416e-08 2.67174e-07 0.0
-1.37649e-07 1.02644e-07 0.0
5.41913e-08 -1.79694e-07 0.0
1.51317e-07 3.04623e-07 0.0
2.61953e-08 7.65763e-08 0.0
-1.68498e-07 -2.69312e-07 0.0
-8.59699e-08 -3.39784e-08 0.0
1.48105e-07 -1.57953e-07 0.0
2.7947e-08 2.26094e-07 0.0
-6.69559e-08 4.00777e-07 0.0
5.10793e-08 -4.05202e-07 0.0
2.4568e-08 -2.17481e-07 0.0
-4.90239e-08 2.67997e-07 0.0
-1.28914e-07 -1.6151e-07 0.0
-8.82756e-09 -2.38352e-07 0.0
2.39965e-07 3.94533e-07 0.0
3.5422e-08 5.37112e-07 0.0
-1.83788e-07 -3.65244e-07 0.0
1.69575e-08 -4.63788e-07 0.0
1.00638e-07 2.78661e-07 0.0
-1.20167e-07 -5.92217e-08 0.0
-1.35982e-07 -2.60232e-07 0.0
2.1316e-07 1.74542e-07 0.0
1.39898e-07 2.16357e-07 0.0
-2.47232e-07 4.44705e-08 0.0
-4.76095e-08 -2.97415e-07 0.0
1.74925e-07 2.31574e-08 0.0
-1.83877e-10 4.77866e-07 0.0
-4.65759e-08 -6.64105e-08 0.0
1.88851e-08 -1.74677e-07 0.0
5.5806e-08 -5.54461e-08 0.0
-6.27817e-08 -3.24452e-07 0.0
-2.006e-07 -4.93637e-08 0.0
3.11332e-08 -1.61782e-08 0.0
1.99988e-07 4.00162e-08 0.0
3.53619e-08 6.72067e-07 0.0
-4.64344e-08 1.83448e-07 0.0
-1.05746e-08 -5.44119e-07 0.0
3.40714e-08 1.65712e-08 0.0
-3.555e-08 2.27257e-07 0.0
-1.52594e-07 -3.41578e-07 0.0
6.94618e-08 -2.71846e-07 0.0
1.96379e-07 3.59693e-07 0.0
-1.31136e-07 1.23249e-07 0.0
-1.89063e-07 -5.44969e-07 0.0
1.26646e-07 5.49088e-08 0.0
1.53613e-07 5.63943e-07 0.0
-1.05657e-07 7.46546e-08 0.0
-3.0327e-08 -4.76103e-09 0.0
2.18016e-07 -1.39938e-08 0.0
-6.94296e-08 -8.16955e-08 0.0
-2.75122e-07 -2.00206e-07 0.0
4.74542e-08 -4.23433e-07 0.0
1.3046e-07 1.95019e-07 0.0
1.35682e-08 3.63905e-07 0.0
-3.25963e-08 -1.16909e-07 0.0
-2.53948e-08 -5.19016e-09 0.0
7.88065e-08 -1.21436e-07 0.0
-5.10643e-08 5.45399e-08 0.0
-1.16137e-07 3.14162e-07 0.0
1.2922e-07 -1.99393e-07 0.0
1.38322e-07 1.11209e-07 0.0
-5.22797e-08 3.99621e-07 0.0
-1.52167e-07 -5.02105e-07 0.0
-4.9206e-08 -5.77189e-07 0.0
1.16334e-07 2.76502e-07 0.0
-3.90194e-08 2.96511e-07 0.0
-1.03084e-07 -2.57257e-07 0.0
1.73796e-07 2.62701e-08 0.0
1.13813e-07 4.93012e-07 0.0
-2.06649e-07 -1.21471e-07 0.0
-9.70526e-08 -3.46699e-07 0.0
2.19806e-07 3.25763e-07 0.0
8.84964e-08 2.48859e-07 0.0
-1.91359e-07 -1.60132e-07 0.0
-3.56168e-09 -2.87659e-07 0.0
1.10584e-07 -3.10569e-07 0.0
-1.70441e-07 2.89136e-08 0.0
-1.10128e-07 -1.60094e-08 0.0
1.53913e-07 6.84058e-09 0.0
1.4152e-07 5.33533e-07 0.0
3.85294e-08 2.56741e-07 0.0
-1.07068e-07 -1.02633e-07 0.0
-4.82591e-08 -2.03919e-07 0.0
8.9085e-08 -3.08584e-07 0.0
-8.63576e-08 2.4513e-07 0.0
-8.16987e-08 -1.36889e-08 0.0
1.08947e-07 -4.9443e-07 0.0
6.28896e-08 2.92875e-07 0.0
-9.02906e-08 2.26304e-07 0.0
-1.43922e-07 -4.47761e-07 0.0
1.12531e-07 6.06079e-08 0.0
2.13266e-07 6.66226e-07 0.0
-1.06943e-07 1.79551e-07 0.0
-8.56057e-08 -4.84996e-07 0.0
1.35677e-07 -6.67504e-08 0.0
-4.84613e-08 9.89489e-08 0.0
-2.35586e-07 -4.36882e-07 0.0
2.16174e-08 -4.49501e-08 0.0
2.70314e-07 3.73737e-07 0.0
-8.77488e-09 1.63578e-07 0.0
-1.81045e-07 1.17525e-08 0.0
8.10646e-08 -2.75355e-07 0.0
4.99101e-08 -5.6821e-08 0.0
-1.11613e-07 2.86216e-07 0.0
8.44923e-09 -6.3975e-08 0.0
8.64092e-08 -2.21765e-08 0.0
7.48567e-08 1.33346e-07 0.0
-6.16222e-08 -1.00151e-07 0.0
-1.85844e-07 -1.50614e-07 0.0
4.94588e-08 -2.89538e-07 0.0
1.50158e-07 1.431e-07 0.0
-5.65043e-08 5.95137e-07 0.0
-3.8316e-08 -2.70934e-07 0.0
8.15407e-08 -3.36966e-07 0.0
3.1249e-08 4.22786e-07 0.0
-1.41387e-07 -7.64722e-08 0.0
-1.01819e-07 -4.04221e-07 0.0
2.26465e-07 2.57057e-07 0.0
1.13738e-07 4.57532e-07 0.0
-2.2286e-07 -2.57509e-07 0.0
-4.24177e-08 -5.12378e-07 0.0
1.27781e-07 1.65839e-07 0.0
-6.65222e-08 1.12721e-07 0.0
-1.26248e-07 -8.89555e-08 0.0
1.55229e-07 2.96453e-07 0.0
2.10628e-07 1.31207e-07 0.0
-1.59072e-07 2.31459e-08 0.0
-1.53226e-07 -1.78104e-07 0.0
8.12531e-08 -4.65885e-07 0.0
4.0872e-09 1.46634e-07 0.0
-1.85398e-08 2.64061e-07 0.0
3.13351e-09 -1.2327e-07 0.0
2.71601e-08 -4.316e-09 0.0
9.11758e-08 3.75797e-08 0.0
-1.13388e-07 1.57411e-07 0.0
-1.09852e-07 -3.41926e-08 0.0
1.77523e-07 -2.07984e-07 0.0
1.20084e-07 4.5253e-07 0.0
-1.33003e-07 1.52667e-07 0.0
-1.0477e-07 -7.95969e-07 0.0
4.07633e-08 -1.86047e-07 0.0
3.17503e-08 3.83107e-07 0.0
-1.58923e-07 -8.86025e-08 0.0
6.55606e-08 -4.61249e-08 0.0
2.69478e-07 5.40599e-07 0.0
-6.43963e-09 2.98455e-07 0.0
-2.66512e-07 -4.1844e-07 0.0
8.86597e-08 -3.29917e-07 0.0
4.94705e-08 1.76833e-07 0.0
-8.9639e-08 -7.52067e-08 0.0
-1.75992e-07 1.23118e-07 0.0
3.1761e-07 -3.05527e-07 0.0
-1.66776e-07 4.52305e-07 0.0
-7.96916e-07 1.89229e-07 0.0
0 0 0.0
2.6222e-07 -5.30849e-07 0.0
-2.68028e-07 8.36032e-08 0.0
-1.7591e-07 -5.23422e-07 0.0
1.49949e-08 6.38824e-07 0.0
-3.48046e-08 5.29132e-07 0.0
1.76503e-07 -6.37783e-07 0.0
-2.2727e-08 -3.68403e-07 0.0
-2.74609e-07 6.58463e-07 0.0
7.11381e-08 -5.79508e-09 0.0
2.0649e-07 -3.55784e-07 0.0
-2.20516e-07 4.80242e-07 0.0
-3.91551e-08 4.57166e-07 0.0
5.04445e-07 -7.85147e-07 0.0
2.47033e-08 -5.34467e-07 0.0
-5.44144e-07 3.00917e-07 0.0
4.65671e-08 7.02775e-08 0.0
2.72167e-07 4.31056e-08 0.0
-2.74802e-07 2.95253e-07 0.0
-1.26738e-07 1.70967e-07 0.0
3.39062e-07 -1.03489e-08 0.0
1.42293e-07 -3.80283e-07 0.0
-2.88353e-07 -5.45358e-08 0.0
-1.08938e-07 2.97168e-07 0.0
3.41235e-07 -6.09733e-08 0.0
2.47401e-08 4.0765e-09 0.0
-2.28905e-07 -2.98162e-07 0.0
1.01124e-07 -3.02069e-07 0.0
-5.13626e-08 5.33121e-07 0.0
-1.59893e-07 -5.86244e-08 0.0
5.4996e-08 -1.67617e-07 0.0
-3.62313e-08 8.46412e-07 0.0
1.59495e-07 -6.53432e-08 0.0
2.82587e-07 -9.99341e-07 0.0
-2.34431e-07 1.03043e-08 0.0
-2.75385e-07 5.39659e-07 0.0
2.50158e-07 -2.29738e-07 0.0
9.62648e-08 -1.90976e-07 0.0
-3.59328e-07 6.22706e-07 0.0
1.17293e-07 -1.82506e-08 0.0
4.34353e-07 -6.92219e-07 0.0
-3.21967e-07 1.18297e-07 0.0
-3.67146e-07 3.65219e-07 0.0
3.64709e-07 6.80447e-08 0.0
1.91552e-07 2.56791e-08 0.0
-2.42003e-07 -1.94617e-07 0.0
-1.16122e-08 -7.82571e-08 0.0
2.02324e-07 -5.80295e-08 0.0
-6.83603e-08 -1.57452e-07 0.0
-2.97943e-07 2.61081e-07 0.0
7.9547e-08 2.34271e-07 0.0
2.97066e-07 4.17277e-08 0.0
-8.28021e-08 -1.45812e-07 0.0
-9.64826e-08 -5.60924e-07 0.0
1.01697e-08 2.66163e-07 0.0
-1.00023e-07 5.85781e-07 0.0
1.14516e-07 -5.08451e-07 0.0
3.47722e-08 6.96966e-08 0.0
-1.28317e-07 5.9506e-07 0.0
2.60013e-07 -6.7924e-07 0.0
7.14321e-08 -6.23403e-07 0.0
-4.71357e-07 6.23616e-07 0.0
-6.25932e-08 5.14765e-07 0.0
4.37891e-07 -3.41548e-07 0.0
-5.28909e-08 -8.63379e-09 0.0
-3.2149e-07 3.57627e-07 0.0
3.34471e-07 -4.61503e-07 0.0
2.14038e-07 -3.25394e-07 0.0
-4.83102e-07 3.28065e-07 0.0
-5.14398e-08 1.04426e-07 0.0
3.88674e-07 9.54023e-08 0.0
-3.68605e-08 -1.62626e-07 0.0
-2.46981e-07 -2.93645e-07 0.0
-2.28647e-08 2.4844e-07 0.0
1.33263e-07 1.79068e-07 0.0
-5.13297e-08 8.15019e-08 0.0
-9.04472e-08 1.03267e-07 0.0
2.42753e-07 -8.97546e-08 0.0
1.46795e-07 -7.55049e-08 0.0
-1.25675e-07 -5.81331e-07 0.0
-1.15612e-07 -3.27765e-07 0.0
-1.89046e-07 9.01931e-07 0.0
3.24761e-08 2.26108e-07 0.0
2.28798e-07 -5.58399e-07 0.0
-1.7483e-07 4.71252e-07 0.0
-5.47527e-08 2.55432e-07 0.0
3.80312e-07 -7.79759e-07 0.0
-1.08086e-07 -8.07448e-08 0.0
-3.98597e-07 6.83964e-07 0.0
2.84442e-07 -6.8332e-08 0.0
3.82448e-07 -5.90545e-07 0.0
-3.77858e-07 7.49184e-08 0.0
-2.69893e-07 1.24085e-07 0.0
3.45554e-07 -1.86093e-07 0.0
-8.24371e-08 3.5171e-07 0.0
-3.39412e-07 2.73033e-07 0.0
2.70567e-07 -8.02154e-12 0.0
2.98206e-07 3.13695e-08 0.0
-9.93927e-08 -5.28865e-07 0.0
-1.76963e-07 -2.32351e-07 0.0
-1.88455e-08 3.8279e-07 0.0
1.17997e-07 1.17055e-07 0.0
-5.25905e-08 -3.42455e-08 0.0
-4.27125e-08 -1.67713e-07 0.0
1.0062e-07 8.86005e-08 0.0
-3.72087e-08 6.7845e-08 0.0
-4.68e-08 -5.45435e-07 0.0
-1.35688e-07 4.20406e-07 0.0
-9.38691e-08 9.01377e-07 0.0
3.75529e-07 -5.80179e-07 0.0
1.34212e-07 -5.32469e-07 0.0
-3.66771e-07 4.41284e-07 0.0
9.40912e-08 -1.61713e-07 0.0
2.91983e-07 -5.26931e-07 0.0
-3.47558e-07 3.915e-07 0.0
-2.43655e-07 5.17821e-07 0.0
4.59007e-07 -3.87177e-07 0.0
9.58078e-08 -2.81101e-07 0.0
-5.16414e-07 2.79638e-07 0.0
3.6849e-08 5.45064e-08 0.0
3.61007e-07 1.95673e-07 0.0
-1.4072e-07 2.1526e-07 0.0
-4.35857e-08 -3.45023e-07 0.0
2.69162e-07 -1.06627e-07 0.0
2.98745e-08 -1.57448e-07 0.0
-1.91552e-07 -5.03941e-07 0.0
-2.19404e-07 2.82288e-07 0.0
-1.14067e-08 6.09284e-07 0.0
1.57003e-07 1.33696e-07 0.0
9.61618e-09 -2.29611e-07 0.0
-8.10275e-09 -1.8828e-07 0.0
1.20132e-08 3.54261e-07 0.0
6.68406e-08 -2.22304e-07 0.0
6.92903e-08 -5.26065e-07 0.0
-2.27476e-07 7.08945e-07 0.0
6.27539e-08 1.53525e-07 0.0
3.86022e-07 -9.61296e-07 0.0
-2.92289e-07 4.6402e-08 0.0
-4.24496e-07 6.22346e-07 0.0
3.0727e-07 -5.22214e-08 0.0
1.99865e-07 -5.57391e-08 0.0
-3.38526e-07 4.46787e-07 0.0
9.51438e-08 -5.78276e-08 0.0
4.8977e-07 -6.31838e-07 0.0
-2.25362e-07 -6.32594e-08 0.0
-4.27774e-07 9.54282e-08 0.0
2.3462e-07 9.26143e-08 0.0
1.45987e-07 4.29298e-07 0.0
-1.61093e-07 -2.18091e-07 0.0
4.22179e-08 -3.44399e-07 0.0
5.65131e-08 3.07587e-07 0.0
-2.71727e-08 -1.20934e-07 0.0
-7.26014e-08 -2.05413e-07 0.0
-1.02746e-07 4.37634e-07 0.0
1.31055e-07 2.83929e-07 0.0
1.92967e-07 -3.12884e-07 0.0
-4.02353e-08 -5.7842e-07 0.0
-1.8215e-07 1.51374e-07 0.0
-7.47062e-08 5.53284e-07 0.0
2.01459e-07 -4.20407e-07 0.0
-2.71534e-08 -4.65175e-08 0.0
-2.682e-07 7.39352e-07 0.0
3.03893e-07 -4.63281e-07 0.0
2.32146e-07 -6.68151e-07 0.0
-5.10013e-07 4.97509e-07 0.0
-1.23432e-07 4.10214e-07 0.0
4.92196e-07 -1.92573e-07 0.0
7.93161e-09 -5.35974e-08 0.0
-3.30499e-07 8.03265e-08 0.0
2.19689e-07 -3.72761e-07 0.0
2.03241e-07 -1.84273e-07 0.0
-4.3531e-07 2.9552e-07 0.0
-1.29177e-07 4.91052e-08 0.0
3.15405e-07 3.88686e-07 0.0
3.85907e-08 1.9644e-07 0.0
-9.43074e-09 -7.41515e-07 0.0
-1.96516e-09 -4.03817e-08 0.0
-7.04657e-08 4.01605e-07 0.0
7.95063e-08 -2.86993e-07 0.0
-4.57011e-08 -6.46462e-08 0.0
-1.12448e-07 3.19355e-07 0.0
1.13626e-07 9.67175e-08 0.0
1.0916e-07 -4.44076e-07 0.0
-1.56406e-07 -2.53167e-07 0.0
-2.49026e-07 7.9191e-07 0.0
1.6441e-07 3.00809e-07 0.0
3.81872e-07 -6.87487e-07 0.0
-2.02028e-07 1.42271e-07 0.0
-1.55594e-07 1.48436e-07 0.0
3.70142e-07 -7.412e-07 0.0
-1.14499e-07 -1.02425e-07 0.0
-5.69887e-07 7.19186e-07 0.0
1.9569e-07 2.03495e-07 0.0
3.94049e-07 -1.06691e-07 0.0
-1.88097e-07 1.35654e-08 0.0
-2.31177e-07 -1.53197e-08 0.0
3.60889e-07 -2.66954e-07 0.0
-1.08262e-07 1.34042e-07 0.0
-3.70148e-07 6.81212e-08 0.0
-7.51744e-08 4.03093e-07 0.0
-2.54069e-07 3.78592e-07 0.0
0 0 0.0
-1.86854e-07 5.18086e-07 0.0
3.40314e-07 -3.90672e-07 0.0
-6.19404e-08 2.65521e-07 0.0
-6.18708e-07 -5.64015e-08 0.0
7.57267e-08 -3.87429e-07 0.0
4.20117e-07 2.89487e-07 0.0
-1.43009e-07 4.24109e-07 0.0
-1.81165e-07 -6.44671e-07 0.0
8.89492e-08 -5.06091e-08 0.0
-3.20972e-08 7.41504e-07 0.0
-1.89505e-07 -3.11171e-07 0.0
1.37114e-07 -8.38607e-07 0.0
2.28424e-07 7.09972e-07 0.0
9.10275e-08 5.47152e-07 0.0
7.93775e-08 -8.20728e-07 0.0
-2.69072e-07 -5.88676e-08 0.0
-2.74745e-07 7.15217e-07 0.0
1.87074e-07 -2.26621e-07 0.0
-3.43176e-08 -5.48189e-07 0.0
-7.75603e-08 2.03228e-07 0.0
2.28924e-07 5.42145e-07 0.0
6.93471e-08 -3.15191e-07 0.0
-9.34981e-08 -4.37142e-07 0.0
-2.19184e-07 5.0655e-07 0.0
1.46307e-07 -1.02383e-08 0.0
4.3612e-07 -3.37566e-07 0.0
-3.47579e-07 3.69013e-07 0.0
-2.41103e-07 -1.36911e-07 0.0
3.4439e-07 -9.09726e-08 0.0
-2.86711e-07 3.85422e-07 0.0
-2.93866e-07 -4.77918e-07 0.0
4.20066e-07 -2.59448e-07 0.0
2.853e-07 7.51329e-07 0.0
-1.47241e-07 -2.46785e-08 0.0
-1.16857e-07 -7.60415e-07 0.0
1.87119e-08 3.99763e-07 0.0
-1.29637e-07 6.60342e-07 0.0
-2.12078e-08 -8.30906e-07 0.0
1.62489e-07 -3.33096e-07 0.0
-3.2561e-08 1.01618e-06 0.0
8.32712e-08 -1.12913e-07 0.0
-6.23694e-09 -7.70737e-07 0.0
-3.64894e-07 3.3846e-07 0.0
1.21753e-07 4.03555e-07 0.0
3.50336e-07 -3.3146e-07 0.0
-1.11282e-07 -2.83825e-07 0.0
-7.97927e-08 3.69817e-07 0.0
5.0368e-08 2.79814e-07 0.0
-1.75177e-08 -4.73382e-07 0.0
-1.70851e-07 -6.10441e-08 0.0
-1.5217e-07 3.21715e-07 0.0
4.47802e-07 -2.18585e-07 0.0
1.82091e-07 1.49096e-07 0.0
-5.41706e-07 9.31713e-08 0.0
7.35692e-08 -4.3438e-07 0.0
2.49228e-07 4.0553e-07 0.0
-3.09726e-07 1.67357e-07 0.0
7.50241e-08 -7.66803e-07 0.0
3.54379e-07 3.033e-07 0.0
-3.15578e-08 7.78087e-07 0.0
-2.46211e-07 -5.91891e-07 0.0
-1.14251e-07 -5.7899e-07 0.0
-4.35152e-09 8.23376e-07 0.0
1.95794e-08 1.78746e-07 0.0
2.19838e-07 -9.91061e-07 0.0
1.24174e-08 3.49595e-07 0.0
-1.27274e-07 7.77219e-07 0.0
2.06877e-07 -6.08142e-07 0.0
-1.8466e-07 -3.37412e-07 0.0
-2.67749e-07 4.39043e-07 0.0
3.77099e-07 1.47797e-07 0.0
1.19841e-07 -2.50737e-07 0.0
-2.82072e-07 -1.31465e-07 0.0
-1.35891e-07 3.25068e-07 0.0
6.50634e-08 -3.19383e-08 0.0
1.43061e-07 -3.36005e-07 0.0
-1.36415e-07 1.65749e-07 0.0
1.21629e-07 -1.31784e-08 0.0
4.93854e-07 4.17022e-08 0.0
-3.02445e-07 3.50458e-07 0.0
-4.92892e-07 -4.6485e-07 0.0
2.30572e-07 -1.69933e-07 0.0
2.58788e-08 7.32115e-07 0.0
-1.74738e-07 -3.72599e-07 0.0
2.1751e-07 -6.5347e-07 0.0
1.42842e-07 7.92934e-07 0.0
-1.13664e-07 3.58203e-07 0.0
-7.70406e-08 -9.76413e-07 0.0
2.66313e-08 -1.53067e-08 0.0
3.75387e-08 9.67106e-07 0.0
1.57282e-07 -4.01819e-07 0.0
6.40576e-08 -6.50837e-07 0.0
-3.91091e-07 7.43838e-07 0.0
-5.72294e-08 1.62976e-07 0.0
2.40526e-07 -6.44384e-07 0.0
-2.75873e-07 4.87887e-08 0.0
9.07481e-08 2.70879e-07 0.0
4.73208e-07 6.77525e-08 0.0
-9.31545e-08 -1.57419e-07 0.0
-2.81628e-07 -7.35344e-08 0.0
-1.01809e-07 2.02493e-07 0.0
1.98221e-07 -1.18081e-07 0.0
8.77368e-08 -1.17479e-08 0.0
-2.734e-07 3.50099e-08 0.0
2.33016e-07 -1.78063e-07 0.0
1.69404e-07 4.49462e-07 0.0
-5.25765e-07 -2.35711e-08 0.0
-5.42617e-08 -7.78935e-07 0.0
3.61182e-07 4.64222e-07 0.0
2.27518e-08 5.93194e-07 0.0
2.3156e-08 -8.17723e-07 0.0
8.99563e-08 -1.60834e-07 0.0
-1.01738e-07 9.75494e-07 0.0
-1.16962e-07 -2.50476e-07 0.0
1.80798e-08 -9.20305e-07 0.0
-3.64559e-08 6.17122e-07 0.0
2.48883e-08 6.08173e-07 0.0
2.21982e-07 -7.84012e-07 0.0
-2.2222e-07 -8.87035e-08 0.0
-3.72609e-07 5.92953e-07 0.0
3.74771e-07 -2.8337e-07 0.0
2.13088e-07 -2.60154e-07 0.0
-2.30612e-07 1.67184e-07 0.0
2.60785e-07 1.22103e-07 0.0
1.56163e-07 1.26126e-07 0.0
-3.4284e-07 -1.52295e-07 0.0
-3.04205e-07 -1.05739e-07 0.0
1.3046e-08 6.60703e-08 0.0
3.4416e-07 3.65799e-08 0.0
-6.38997e-08 1.01082e-07 0.0
-1.82007e-07 -3.32925e-07 0.0
3.61963e-07 6.94723e-08 0.0
-7.99043e-08 6.25447e-07 0.0
-3.0882e-07 -6.17168e-07 0.0
2.57112e-07 -4.6036e-07 0.0
1.49362e-07 9.9241e-07 0.0
-9.6848e-08 3.69281e-08 0.0
-9.01412e-08 -9.34093e-07 0.0
-1.68505e-07 3.74531e-07 0.0
-9.82364e-08 7.18635e-07 0.0
1.45067e-07 -7.60958e-07 0.0
1.70247e-07 -4.32262e-07 0.0
-6.49923e-08 9.33582e-07 0.0
1.65111e-07 -1.3294e-08 0.0
1.46273e-07 -6.51202e-07 0.0
-5.25324e-07 3.33307e-07 0.0
-9.43509e-08 1.47451e-07 0.0
5.02835e-07 -2.36122e-07 0.0
-1.20637e-07 7.30481e-08 0.0
-1.90853e-07 -3.91061e-08 0.0
2.10069e-07 8.21319e-08 0.0
-3.31106e-08 1.42238e-07 0.0
-2.14399e-07 -2.14983e-07 0.0
-8.78551e-08 -1.54638e-07 0.0
2.93629e-07 1.20075e-07 0.0
2.76174e-07 3.20861e-07 0.0
-3.36448e-07 -1.50772e-07 0.0
-1.00036e-07 -4.97963e-07 0.0
1.9941e-07 5.68547e-07 0.0
-2.28386e-07 3.0109e-07 0.0
7.41316e-09 -9.86678e-07 0.0
2.50257e-07 2.17505e-07 0.0
-3.00913e-08 9.70719e-07 0.0
-4.18558e-08 -6.05372e-07 0.0
-1.17769e-07 -6.43849e-07 0.0
-1.5324e-07 7.56559e-07 0.0
1.36038e-07 2.37593e-07 0.0
2.98868e-07 -8.45456e-07 0.0
-5.22121e-08 2.17541e-07 0.0
-2.3651e-07 7.01292e-07 0.0
2.25813e-07 -4.85529e-07 0.0
-1.2543e-07 -1.94506e-07 0.0
-5.04476e-07 2.73714e-07 0.0
3.94761e-07 -1.77352e-07 0.0
3.93424e-07 1.36899e-07 0.0
-2.95221e-07 4.1648e-08 0.0
-4.04884e-08 -2.53791e-07 0.0
1.01589e-07 2.25124e-07 0.0
-3.37968e-08 1.32198e-07 0.0
-1.26569e-07 -2.68936e-07 0.0
-1.96292e-08 -1.7097e-07 0.0
2.97495e-07 3.58981e-07 0.0
-7.73163e-08 3.30627e-07 0.0
-4.03655e-07 -6.52585e-07 0.0
1.31126e-07 -2.19567e-07 0.0
1.40206e-07 8.90664e-07 0.0
2.0237e-08 -3.23379e-07 0.0
1.94818e-07 -7.86294e-07 0.0
2.54912e-08 8.07565e-07 0.0
-1.71087e-07 5.0123e-07 0.0
-3.19585e-08 -9.53736e-07 0.0
-2.541e-07 -8.17545e-08 0.0
-3.76038e-08 7.79814e-07 0.0
2.344e-07 -2.34858e-07 0.0
2.58334e-07 -6.17967e-07 0.0
-3.7176e-07 5.70791e-07 0.0
1.14944e-07 2.02986e-07 0.0
1.50343e-07 -2.02529e-07 0.0
-6.70246e-07 -1.54653e-07 0.0
3.26576e-07 4.04809e-08 0.0
SCALARS VonMisesStress double 1
LOOKUP_TABLE default
208138
181279
187516
429803
319158
244338
257471
206393
94700.2
91109.6
257256
64851.3
372424
461556
363730
271274
202299
97523.9
93503.5
204915
344653
149631
232154
237010
178812
132165
178602
117132
184295
502779
520421
253908
73635.5
136519
74807.6
147194
154878
189739
383499
554939
345221
125542
78985.5
95230.2
82613
141096
248275
261990
125820
393830
301348
241030
348457
419205
306702
296679
319962
78209.5
374167
354562
200901
41785.1
123796
120991
185625
378804
407211
180020
90627
66309
201693
118538
103246
160882
282189
533324
494795
215319
90931.7
276934
234694
109617
49290
137582
301199
385436
187196
147886
39193.6
285812
345043
359770
362964
204774
109609
247801
177030
123404
263489
440044
329550
265787
289292
93223.2
212708
65237.8
341856
211959
113112
190025
335103
451259
422701
211833
89997.1
221288
321640
141491
91531.1
146417
196169
245454
187316
124308
76040.7
421257
491230
291869
169144
182177
107368
190460
124826
153373
226843
467452
465150
349934
242544
128235
92743.1
66165.3
182926
155596
147105
262551
210687
132001
182907
191895
184162
380787
625941
354882
170595
235103
310652
379042
312985
152430
126956
304653
322087
156374
78116.8
72095.5
133762
93218.7
121010
164407
157894
507295
550537
343608
177919
251458
161401
91622
190504
197689
259202
464605
318771
183948
167807
139901
126674
229491
352479
247987
101790
145787
137876
125416
150580
312527
399038
415976
305967
137481
109019
134507
138133
159771
121070
109137
72967.7
28207.6
77560.6
34163.4
54308.1
94207.5
148831
66163.1
171820
66530
50693.5
32647.4
23199.9
56934.1
35117
112498
123190
66643.4
136624
42135
87797.4
40535.2
29716
125148
81693.8
205980
73571.1
100202
23883.9
77939.7
16380.1
32685.8
58991.2
76679.1
152143
141403
73173.5
116795
27867.9
31826.6
38351.3
68113.7
126186
103459
120831
101403
108639
58565.1
119464
80445.1
66563.7
102185
115368
119541
161099
25263.5
104440
36211.2
21781.1
63318.6
62820.6
138057
62111
97129.7
54539.4
77310.6
114377
30084
35962.8
77930.3
84097.6
172324
46231.6
151230
34128.8
144644
48657.1
49519.6
71366.8
50245.8
130166
57850.7
118769
131322
46555.9
109651
73253.7
64987.7
107090
29116.3
96150.1
29619.4
97331.5
81383.5
116676
101078
73526.7
38301.9
84572.9
112186
128947
128487
184836
30814.7
61492.7
65829.9
61457.1
105161
27444.3
94917.7
58614
130256
99467
56396.7
48045
32199.8
29665.5
40869.4
58124.3
142180
72465.5
194493
79091
80707.9
52114
59723.1
96951.4
44048.5
165742
83624.4
132791
124745
35688.5
8493.36
26536.3
33925.2
88241.9
49206.7
145560
41167
107830
38792.2
64734.6
41786.7
24614.3
48698.9
101197
179122
216154
58589.8
127960
64073.9
34055.5
96847
37015.3
118011
43684.5
125225
32487.3
83042.2
60020.2
53793.7
65055.7
50292.3
101019
117442
106149
173079
46751.4
80833.7
24501.9
81961.9
50284.3
58244.7
151652
77300.1
177885
102493
92251.4
51061.1
37414.6
51728.8
56357.5
95034.8
107573
29840.9
101317
36973.9
148276
69477.3
82086.3
82393.3
47554.9
58961.4
27959.1
25786
218939
61777.9
194992
201019
79624
65877.3
135903
68828
37644.5
74986.6
95892.8
84884.1
219176
109977
94462.8
77334.7
72095.3
43028.9
77378.5
125126
108814
62725.8
135041
57883.1
105944
52939.5
81412
57414.2
112691
260546
129232
121517
33670.5
86144.2
11838.8
71427.7
47851.2
52884.5
166737
162166
124132
111446
42459.4
84783.1
96401.5
92247
94224.4
47618.1
148066
167061
89027.1
62880.4
193406
147286
78126.5
85397.2
89068.1
136350
156898
78468.3
127185
24309.8
76092.5
61620.4
71495
178970
116345
90721
31244
105953
104291
17737
98951.9
70077
89991.7
202440
115456
137254
51287.9
187374
63928.7
79742.9
38247.6
33959.5
127913
76456.5
119299
75679.5
110661
196754
115267
93123.7
116018
54977.3
105286
41788.7
70673.7
36531.5
150700
160415
89490.9
60884.7
108833
66440
66809.3
168718
201486
61867.8
125862
59613.6
107621
150220
89694.7
82776.8
38642.8
154897
119397
80809.7
56346.4
35599
41200.6
53135.5
49539.2
70136.5
80403.1
252225
144415
103555
52926.7
83722.6
68847.5
43179.6
134452
33586.4
208220
171984
94764.7
77802
59501.5
37008.4
41577.5
45148.1
148898
42120.6
124272
59743.2
71320.4
43064.7
95233.6
103426
78639.6
197420
222217
115911
188620
45574.1
54395.8
115298
72024.3
104772
76214.2
162519
73796
69751.9
21898.6
101344
110683
26074.2
48218
30773.3
167314
226795
116057
100511
52839.9
125125
61370.9
34197.7
110772
44828.8
200396
130215
127342
61322.3
95151.2
62124.6
49406.4
145707
134337
48999.6
68581.4
18234.1
126677
30806
159349
127464
100946
116889
74498.5
70015.9
95773.5
160988
191762
114587
104800
43898.4
89526.6
35423.2
52497.5
24994.6
30527.5
96240.9
89448.2
63193.7
143031
39207.8
90118.7
46375.7
83706.1
72392.2
28236.1
66248.6
58128.7
61769.5
90912
75282.5
115121
47595
62755.1
93105.7
62139.6
160494
30537.7
90031
31595.4
54269.9
20239.2
24172.6
29944.3
17513.3
116250
58978.8
172657
143391
51326.6
44461.8
65431
101206
123096
80552.7
75372.5
50706.1
99361
31344.4
102825
39635.2
30888
68630.6
34124.2
168974
113835
77793.4
123203
79088.8
38983.5
65324.8
21415
94542.6
40650.8
101175
21439
92191.8
102067
44492.9
27643.5
22456.4
47771.3
114812
63947.7
140760
21363
96280.3
29131.1
56785
40762.4
50896.7
88106.9
76553.7
171174
132167
15903.1
80263
21456.1
69529.8
81147.2
57480.2
61906.1
38444
76091.8
43415.9
81916.5
49664
88521.3
47689.4
37585.3
127830
72558.1
160409
166766
18047.7
29735.7
25181.7
67655.3
55266.3
58860.5
92070.7
34966.3
93037.2
41071.7
81502.8
21887.2
40331.5
37578.4
62450.1
106537
119050
29486
142935
25230.9
77874.2
33212.8
31818.9
68079
53927.8
161940
40983.1
122379
47686.8
47277.2
43259.3
52952.5
66612.7
77201
46982
122206
39251.1
53125.1
65147.4
103037
79604.3
29323.3
13542.7
35428.5
173990
153500
91734.3
122008
9601.15
49036
77142.9
79068.5
132898
39511.6
38573.8
76133.1
92364.6
48747.1
67448.3
97701.2
66509.4
125869
74511.6
109216
101472
42549.6
77151.4
26411.4
44790
28405.2
34535.3
103854
38471.5
156314
40230.4
136034
86271.7
28887.9
85593.1
37766
85371.4
48850
30069.3
37069.8
62720.6
155553
53368.6
69970
13163.1
36229.5
33008.6
44927
63680.9
161248
69798.1
166414
67167.6
64116.5
43573
85397
31657.1
36899
50532.9
55606.1
130532
91058.3
75673.9
122832
38364.5
55956.4
51320.7
89554
72519.5
23219.2
53387.5
26040.3
105564
84562
27357.8
38019.1
43230.7
132032
116214
72595.1
121323
48206.4
30788.8
80774.6
33944.3
17577.3
24727.3
17923.4
85685.2
204683
80814.9
102476
112051
127847
133473
39519.4
64140.8
132661
76602.2
26865.4
80240
103390
21894.4
88529.8
47476.7
80399.4
161650
39368.8
182411
133018
38661.3
31842.1
35379.1
52924.7
87448.5
33496.5
63138.2
93562.7
109282
20439.7
50547.3
81190.6
61272.1
58337.5
43068
102526
116030
50271.1
64354.1
70596
63164.6
42813.4
35587.5
24816
139492
140812
29440.8
129014
131128
43654.1
35285.1
36246.7
114392
89460.2
46466.1
41497.9
42592.3
45808.4
31389.5
106865
46489
30744.5
49385.9
78924.4
191242
82838.4
108652
102508
32910.7
73747.3
38852.5
95574.1
66209.2
26419
56285
31486.7
93381
35740.1
69901.2
30339.3
72784.4
75515.4
24220.8
112163
123070
39264.6
85429.2
40687.9
30483.5
50506.8
43462.8
70010.7
84516.7
150826
37017.3
101144
60252.2
68384.2
59826.8
27155.9
90286.1
105697
32222
43445.6
99119.2
57420.6
47888.3
69976.1
92384.8
101858
102163
40777.7
217804
162017
13966.2
52328.9
47300
119968
122725
31866.8
47557.4
95484.4
27631.9
99818
122557
101238
26185.6
36157.7
77879.7
190053
91535.8
78141.5
73344.3
22073
10867.1
33774.1
33004.6
24403.6
75254.6
104520
89272.5
170653
56016.5
26099.4
43187.6
45941.8
127335
49747.7
51368.4
43960.2
64363.9
46448.1
67861.4
143538
50132.2
28192.8
33593.2
49143.9
32948.8
48251
189373
135891
70009.6
79701.2
89405
86551.1
84324.8
75521.5
31977.1
94983.2
101149
68310.6
148498
88783.3
60856.6
42333.9
58313.2
87073.3
68463.9
58160.4
32855.9
74767.6
87162.8
48805.5
139728
69581.8
36244.1
86731.2
28759.6
155320
112819
71806.9
39359.1
124209
29220.4
101229
50984.8
58022.4
113759
80813.3
104340
231803
115662
22418.3
61597.5
76459
155257
122510
32948.4
35363.5
102349
45236.9
164431
147922
29808.1
40399.5
50547.7
130628
229601
66898.3
92919.6
72929
49239.7
79394.7
71128.2
15852.9
33471.1
97836.5
49630.9
147205
133049
39849.5
6406.16
22453.7
44772.2
122058
73643
93663.1
63516.4
113459
28426.2
122053
67071.3
13420.2
91060.7
40407.5
183220
165183
40150.2
48985.3
56043
54076
97218.8
69291.2
78923
54185.4
76872.3
30880.2
113224
86533.6
49743.1
82968.5
40570.2
98610.4
118721
90869
180905
74059
65655.2
43077.2
40565.5
103120
49463.5
73091.1
44612.6
68127.7
38929.7
86511.9
115723
40688
33381
37284.9
101481
123079
28654.7
101994
75089.2
86220.7
38874.2
90985.9
34138.9
34872.3
98778.4
57075.4
140260
151572
49198.7
40301.7
40553.4
82023.9
109352
42632.1
42538.5
50755.3
89052.9
36994.7
181470
99300.6
11697.4
34506.7
58915.2
165164
206087
52023.3
145412
99376.5
60857.8
133313
77781.9
67723
77649.1
68264.9
79592
199836
77997.3
50207.3
93001.2
104724
106032
121759
33093.7
158145
82892.1
53252.4
66907.1
86027.4
24479.8
39336.7
37383.5
19779.1
176088
132777
93390.6
108746
53784.7
52373.4
106534
20745.4
84282.1
66061.3
48062.3
92316.5
142183
89409.9
63974.2
94654.6
48438.8
75676.6
89848.5
16796.3
69896.1
96004.7
130842
78894.7
147047
60049.5
137689
116697
55221.4
40422.9
47295
144867
152494
45873.7
135743
67108.2
66438.5
49056.4
66880.5
51335.8
38556.2
76863.1
17453.9
131885
179217
39509.1
111211
49206.3
70021
162873
48527.2
129944
65216
111709
67049.8
184467
49105.5
33738.9
54596.1
79878.2
206581
186795
48355.6
164300
95443.5
89931.4
122652
40714.5
58067.6
92573.8
83226.7
46997.5
224784
120201
116765
119270
71836.4
143238
146859
94937.7
198152
85461.5
55879.8
84019.1
69463.2
31547.3
57781.8
46478.5
48092.9
196342
110114
98223.6
115328
61684.4
39883.9
77976.9
26158.2
124733
70794.1
120665
86656.2
189089
36411.8
90653.9
53181.6
53261.1
187306
88857.3
150202
135129
57289.8
32691.3
39804.6
40790.1
82551.6
57937.2
71283.8
56989.7
134107
24707.6
138690
127757
44732.8
36075.7
51074
146824
158459
99557.6
142870
52980.7
69746.6
62914.2
35954.7
82773
47446.3
85908.3
32924.5
125179
82029.9
94886.4
113727
33692.1
55968.6
62907.8
79844.2
132937
49065.7
120232
44421.4
143420
38388.9
81036.5
54221.9
45936.4
181198
81951
149018
143602
46061.4
41150.7
65653.1
39907.5
92704.7
65663.4
46329.9
65103.5
183609
32721.9
161521
125003
90355.8
112462
58325.6
150908
242377
92970.6
66478.7
104066
50833
137258
106020
35695.2
91533.7
161207
56823.9
210733
146547
57543.5
16726.1
36269.4
98015.6
166367
58717.7
86759.1
91690.1
117270
52066.4
128989
66988.6
29757.8
136904
40489.6
227146
154012
67678.5
26618.9
66716.4
39550.4
108994
49729.8
27340.8
128803
118303
53431
173885
135655
40820.9
30591.8
64920.6
57498.1
92981.8
102683
150796
44626.5
149827
45123.1
158509
83172
114385
95612.5
34588.3
87389
71763.8
137286
156739
32760.4
88373.5
21934.4
64341.9
44935.8
50179.4
36852.8
70162.1
120846
82323.2
117844
209662
57587.1
24495.8
72893.9
65319.9
170195
61668.8
85005
64491.7
153889
40951.3
158718
96904
94261.4
131040
35321.5
197458
216664
57847.1
39997.4
27444.6
50774.2
103616
89524.1
47006.1
28195.6
147711
63151.3
239004
168014
27216.8
49988.6
49687
160401
182615
62370.9
86337.3
84069.2
70760
73665.4
94560.9
57641.2
76800.5
125273
48467.2
200547
148775
15924.5
31007.8
25072.4
37684.4
107017
57898.2
91695.9
90635.8
168552
78105.6
187179
82116.9
23405.9
68584.8
48724.7
206032
109132
87341.6
66340
23008.4
39506.3
54089.2
45344.9
44166.6
53432.4
91666.9
57830.7
148604
80306.8
97000.9
96331.5
50934.6
67677
70217
155863
134753
101009
111754
36385
47647.1
49849.9
32768.1
70430
60005.6
105285
29482.3
136520
110367
46865.4
53013.8
31057
87964.7
78812.9
40811.6
109312
29908.6
144102
49954.6
153535
34729.2
37439.3
105874
67433.5
223736
124279
75528.8
71495.4
30320.2
73974.5
94868.4
30399.3
23625.4
38136.5
81015.6
99783.9
231424
103596
40307.3
67651.6
103903
175565
156325
86379
165388
86245.9
57314.1
155950
83891.6
28336.7
58241.5
73547.3
150794
232695
63585.5
87921.5
100316
85508.4
86736.9
85104.8
30386.9
90534
78645.9
84881.6
122008
175999
54699.9
54006.7
60952.4
83455.4
234855
97417.4
157549
84778.2
57603.6
60993.2
102299
28315
21332.8
71893.2
49762.1
159971
180187
45595.6
107605
97503.8
49174.3
95734
108238
26955.2
73343.2
83915.1
106870
39427.6
146951
32462.4
141245
72230.1
52688.7
31634.8
43226.4
131514
81817.8
94469.8
103765
33220.9
48589.3
54005.6
55339.9
19023
68304.8
40159.9
92216.6
156597
143543
39294.5
130592
60877.5
82939.6
127285
30783.5
95343.9
41952.7
55419.9
121473
177516
42877.9
38532.4
61708.6
142625
207729
86084.2
105808
127885
51982.3
63237.7
69509.1
20755.5
15273.1
23198.6
47601.4
91336.1
212496
87089.9
119357
96619
75240.3
130629
76374.4
89526.9
88773.9
76907.1
44954.3
113962
105270
33986.7
45555.3
54739.4
138652
194489
56427.6
88561.8
86224.9
55530.6
38671.2
53185.5
39557.2
51008.5
40280.1
82903.5
146236
189581
20240.4
85509.2
61513.2
91443.7
129239
26585
144864
61450.9
55460.7
28066.4
34242
31836.1
15408.6
45897.2
47977.4
87212.3
88155.2
18366.7
102282
72447.5
67610.7
41734.2
34195.7
95325.3
46214.8
165670
99693.1
82527.2
69505.7
19232.4
24668.7
42740
50984
59481.5
72917.5
106178
18318.3
103466
83732.8
22919.5
29182.1
24868.6
80192.5
57533
23999.3
77460
59320.7
147809
31860.6
92402.5
50173.7
114612
165992
42130.2
179622
111756
24400.5
37845.8
31408.2
48967.5
63618.7
37499.5
45101.3
119554
123162
56313
174781
134793
89809.2
47651.4
41949.6
151423
161022
59064
60318.9
115809
34553.5
102388
71485.2
67000.9
145474
107792
91854.5
176527
103914
38351.1
17159.9
21681.7
59943.8
74189.5
42544.5
40392.3
140145
111212
59318.7
143202
114825
76947.4
108867
54280.6
212202
95174.2
69025.5
62796
75244.6
33363.1
60803.7
42221.9
76753.5
143166
64604.2
102483
158630
87167.7
22474.4
33900.9
43761.3
106349
184044
191590
87240
67752
106349
75905.2
107822
64791.8
110641
43189.2
29607.9
43167.5
40597.8
134966
64624.7
72613.9
39548.2
72822.9
34778.6
55301.7
40226.9
44408.4
145334
78798.4
50052.1
135695
139016
40767.5
28233.6
44086.1
96909.8
115656
37035.8
36801.8
129184
61574.9
111240
139202
90906.4
94890.3
60068.5
104423
195903
101424
41167.4
36515.4
30009.4
65296
53934.7
30526.4
62416.4
79523.5
68327.9
64183.8
174433
89802.1
37282.9
59285.7
35838.1
112606
65788.6
71530.6
50186.9
134308
47852
56534.8
76339.9
83658.3
132527
91769.6
93370.6
151845
74031.9
22461.7
47007.1
17639.8
31300.6
46127.2
35082.6
34342.9
129568
87893.7
131334
135164
50082.6
45233.4
36517.9
91512.1
114813
54112.3
91440.5
25311
58677.4
24004.7
13036.6
43433.8
30290.5
94161.3
45479.8
73772.6
55874.5
42571.2
68661.2
24511.8
57813.4
15316.9
50603
134058
36634.1
165361
73426.9
42291.2
44272.6
30600.6
56713.8
36416.6
64393
35040.2
91242.2
96378.7
34707.3
66060.7
35041.2
44672.6
74731.1
35710.2
59006.9
25737
53257.8
49432.1
95639.4
126135
34308.5
42574.5
42072.2
159649
189006
44183.9
76964.4
51544.2
44999.3
97893.8
65945.1
6420.12
25583.4
45964.1
50628.5
177446
154118
27843.1
54273.6
79439.4
134853
113953
28879.5
86023.2
70972.5
72507.8
44968.9
137084
53839.2
27220.2
72539.6
47135.5
174718
131052
41959.2
48763.1
43002.3
45685.9
62541.6
45065.6
15369
60441.9
102767
44187.8
159513
131912
51417.6
24223.3
56494.6
118868
158610
37551
95494.6
78305
56952.2
106170
88080.7
25548.5
63421.3
57296.1
80661.2
163328
92433.5
36141.8
68050.4
44754.6
35800.7
90456.3
52542.7
49610.6
163663
81942.8
51441.3
73813.3
48823.3
159408
100606
101452
89120.8
16137.6
74040.9
90538.5
60913.7
121736
43017.2
88383.5
31681.3
117009
38083.5
26756.6
73215.6
44471.9
179543
122810
43537
83618.1
69772.1
48061.2
106217
82294.2
61450.4
52328
91087.9
86101.3
214115
93266.5
57144.4
49509.4
73527.4
153703
122159
73276.2
133249
65778.4
52901.6
85843.9
64993.5
36249
27301.3
39361.6
50006.6
128790
109274
82273.7
93926.9
61878.2
37558.6
93171.4
58154.2
68221.7
108803
127439
68518.8
140426
74894.3
34443.2
45044.1
29328.4
146871
123991
86618.9
47303.9
92983.6
33748.8
70467.9
57762.8
28495.3
47379.5
70569.6
46717.4
184243
89499
110872
43935.6
48317.2
75785.6
52832.7
113402
67650.1
109262
96855.7
27120.8
47975.1
35990.2
20022.8
92807.2
38514.4
86222.3
64752.7
106973
15158.3
105398
103149
22808.3
35097.7
27077.9
124318
189364
50523.8
121765
68040.7
38896.8
89351.5
49131.2
43848.2
43496.3
94131.2
20932.8
135370
109705
43535.9
36228.3
38994.4
61143.8
88681.3
56388.3
52178.9
60705.8
122166
49638.8
110281
80488.9
44403.1
135833
73238.9
158442
150655
74363.9
34877.1
94903.8
21264.6
72911.1
58441.3
39553.7
100079
144441
35034
183879
134416
52830.8
58968.4
10072.6
111310
112145
53981.1
62857
68816.3
118386
62948.7
98440
43127.4
61785.7
139374
52074
144638
72942
73566.9
23512.1
54024
28661.1
20654.9
52507.6
51581.2
129905
181488
46087.1
92352.8
74444.5
68143.7
95381.5
58664.9
75186.6
99419.9
95692.6
48141.7
154154
85636.9
64854.5
44135.7
31230.1
122255
115121
62842.1
119711
59930.1
67035.8
26756.1
62389.3
53367.2
92967.5
49474.3
210712
46820.6
51132.5
42097.8
146397
26143.8
223624
140696
61449.7
47037.3
24407
124028
122700
58702.9
93604.7
51395.5
117974
30019.2
117605
42646.5
59369.2
132482
17248.4
166186
145825
50765.2
59720.8
53318.1
32634.2
110828
77678.9
64382.2
92943.7
176991
71490.4
215630
102323
34605.8
50336.9
31849.6
152105
128346
75128.5
95665.5
71727.7
69069.6
69977
53287.7
25090.2
54602.4
90171.2
20628.7
155299
94236.7
112698
60201.6
75396.6
36008
53845.9
113997
96138.7
150787
164724
40455.5
69809.8
36354.8
45061.4
88080.4
42624.7
115490
57174
132854
44963.4
111022
74280.7
14484.2
33339.2
45595.2
82228.9
149306
48919.2
169175
50225.3
118676
26098.3
40940
83204.8
38212.2
178269
76330.3
103252
100189
23279.3
18591.9
69459.9
30204.5
86290.8
57050.6
83972.2
91430.7
181654
66624.6
98397.8
110599
58622.4
129442
106093
128499
183347
71472.8
60493.8
111008
65148.7
66356.1
52570.4
34187.9
97988.4
164399
49358.9
126850
118274
34497.7
33584.7
77799.4
57193.8
67775
75617.8
79833.5
87791.8
191707
66536
70332.2
38342.1
57422.2
200596
102235
134755
79591.2
84266.4
46519
124222
60574.1
14825.6
34523.9
40385.5
130248
225806
59812.7
138619
80534.7
42342.5
101329
55369.7
90843.6
81807
86483.9
85781.7
120117
133442
51858
35930
54319.4
83499.5
154882
59092.1
137464
21220.4
79294.3
31515.2
36655.4
39958.6
35611.4
111758
117807
119123
174661
60210
56882.1
31493.4
17252.6
86932.5
64981.3
112563
35986.6
169890
64568.3
132205
75696.3
33851.9
71174.4
46630.1
114743
103327
68803.1
114470
13025.1
98929.6
42550.8
46846.9
87438.9
146335
127267
49817.1
44411.8
55840.1
91115.2
228277
71736.2
183682
133406
31710.2
98202.3
72058.3
109819
101445
50820
55336.1
88719.8
144196
19336.5
51929
38545.2
117310
174833
54812
102797
137236
38829.2
33015.7
98485.2
50682.6
74156.4
30079.6
78148.7
139644
226291
36727
136112
67665
81707.5
110307
14435.3
124885
99421.9
66557
67152.4
75095.4
62524.9
25679.5
13084.7
26321.3
57257.3
121589
29993.5
160306
78396.1
102943
39163.2
45375.9
67490.6
56912.8
155139
119048
120635
116928
35088.7
19813.8
13161
13782.5
64612
31138.3
127634
37111.1
137107
75755.1
40967.9
61996.6
42732
49401
90677
64232.1
138058
65553.2
155053
31221.9
109644
24227.5
51391.7
141384
47618.4
194773
104086
23212.5
35063.4
26977.4
21595.6
88913.2
51905.5
34946.6
98803.2
119745
69809.8
207353
150206
11390.4
52202.1
54757.9
184314
161882
71190.2
86915.3
98430.4
55199.9
123504
84279.6
28046.9
105541
82959.1
96975.5
189411
118896
41455.3
53869.2
40295.9
55725.4
87041.4
29034.7
24554.9
110729
135488
74537.1
202079
83433.4
43622.1
97565.8
50164.5
207544
99209.2
88424
31620.2
101033
23142.9
80400.2
66042.4
76999.3
98847.8
85422.6
98958.4
227717
91132.7
57278.5
19388.2
24820.7
100055
65948.2
83612.6
65047.8
126276
98549.3
114256
97237.9
33249.3
48573.6
73165.4
97778.5
147060
48717.9
113113
11459.3
51155.3
52227.7
19481.4
28471.2
44357.9
128889
134209
84991
121479
25245.5
53910.1
35481.7
31931.7
91053.2
43315.1
164265
45498.9
160693
61936.5
62015.9
30135.5
37231.9
80739
38059.7
107909
69365.3
72862.7
132156
57090.1
68355.9
56811.2
27157.5
204692
277863
43910.4
43091.5
104730
96279.4
104465
237819
123621
49353.6
59664.4
50151.3
137056
94771.1
43173.4
34536.3
93909
50313.2
97751.6
140712
74994.2
87484.4
46290.4
118651
167581
106211
18559.4
62228
43935.7
30564.1
107010
48940
32029.9
82512.3
76215
136938
203779
53792.9
36490
29029.6
95457.5
123702
26506.8
86292.5
48836.9
66704.4
32612
55938.3
34612.8
31847.1
33221.7
14894.7
59064.5
125958
32308.3
132201
52862.4
54685.1
35492.8
29962.2
93030.3
43705
139907
86306.4
94172.6
50364.1
22463.6
7467.7
16805.5
44967.1
64151.9
68540.5
136419
28362.7
73981.7
66299.6
31938.1
13475.7
55706.2
41464
67827.5
81057.6
82767.3
110979
151048
17411
40087.5
46407.2
121263
195004
36783.1
111180
71115.7
31455.3
46152.3
74810.9
39412
27005.9
40900.7
51968.8
162358
164680
45453.9
119575
132460
85817.3
128631
66846
119864
99469.3
63318.7
28318.3
149528
82717.7
34279.1
59394.8
68435.4
181929
143186
26083.6
110699
96475.9
38746.6
59443.8
74403.1
11647.5
29479.8
29465.7
36262.7
156392
191674
29209.5
112716
74704.7
125234
163865
22249.1
128449
53124.8
44739.7
82059.2
116350
30955.2
29107.9
17389.4
89032.3
150271
130786
44869.6
145842
76123.3
32776
38732.2
11353.5
65409.7
41433.1
82133.3
39316.2
145664
81979.9
71896
44933.8
29363.4
94344.2
69939.4
97376.3
112368
45773.3
69229.8
18919.2
8709.95
26546.6
37079.9
55287.7
32424.6
115775
80922.9
71727.7
82583.5
4992.05
34664.4
32116.7
49640.6
123352
59332.6
153017
43952.3
74865.6
44440.4
45792.9
34604.5
24793
60592.2
48023.7
138083
76320.9
45696.8
121384
81639.5
34923.7
104974
99380.7
93282.8
67362.3
39523.5
68015.2
193305
165207
42526
140080
84198.3
61061.3
119953
56908.1
79518.9
57973.3
55658.5
95928.2
178561
92762.7
39034.8
65900.5
92165.2
191883
104536
55920.4
96091.3
88945.3
31389.5
51049.3
97140
28148.9
67909.4
9917.22
70869.7
164811
88908.3
121173
126232
50465.1
74554
55118.7
89188.9
100603
39575.4
64836.1
52982.4
79021.3
34884.6
32996.9
12149
60188.8
61908.1
23459.1
68055
116820
46190.5
89782.6
36559.9
35885.2
55201.3
34808.5
99259.3
41858.5
132980
40089.4
101938
19327.6
17459.7
36735.4
28190.6
113333
88595.2
77018.5
102571
48361.8
28628.2
28069.7
30557.8
40001.7
48576.9
31927.5
45112.5
169227
83309.3
110636
112226
68654.1
111751
86807.4
118053
173087
65007.2
20887.3
80615.7
35514.5
47795.7
82723.1
57477.7
93281.3
137939
34346.1
139331
160108
104385
17108.6
33060.5
60222.8
152091
78681.8
52309.1
80383.3
127798
31649.4
131338
82815.7
84380.4
144251
30023.8
154209
139378
66383.9
23914.5
64137.1
42501.1
76577.8
72711.9
50475.3
124153
111297
14773.3
155949
193135
61314.3
60752.3
58368.3
140886
164926
32600.8
28532.3
92973.9
60363.8
101630
93027.6
53093
103469
62005.9
61571
155842
131301
35230.6
47786
24703.5
55358.7
55187.7
7676.84
34646.1
31714.4
109518
44569.9
145296
46405.3
41457
58116.8
37612.1
125931
51232
101181
57753.8
73179.1
22383.6
22952.9
12773.7
22018.8
41197.8
65896.6
57193
131501
41697.1
61573.8
55784.4
31648.3
33214.1
49367.5
92054.9
132490
64909.3
76386.7
94968.4
48766.1
72133.6
39874
6183.41
94880
100215
77696.2
162530
105262
37789.5
27285.2
65706.6
76178.2
147249
141864
80270.4
101499
135741
29515.8
200343
154821
75129.5
24902.9
81054
31972.5
112722
88710.5
23223.3
149511
139662
65600.4
197818
129785
46966
97400.2
38637.9
197563
125918
38551.6
8913.54
45359.7
63465.1
97407.1
124633
40904.9
78846.7
78875.8
101367
204782
102302
87683.5
57127.1
20518.1
99964.6
72522.8
80917.5
68647
83321
85577.5
93405.8
92961.4
37911.3
40358.6
30530.5
76975.4
89011.8
27536.6
104269
86831.8
98349.2
50462.7
57470
47283.2
44687.4
89609.1
86198.9
101050
154624
42689.2
86180.1
28085.6
49338.9
86046.9
14389.5
143625
100558
94883.1
39116.8
77804.4
28504.2
58039.1
54134.5
37110.1
71920.9
124373
82076.5
231063
117494
26604.6
52139
52343.2
165109
140037
75236.8
74465.5
93445.1
35196.5
129814
114059
24924.2
32362.3
57722
142843
218104
73539.3
61783.5
72214.4
66456.8
62587.2
100406
51557.2
62826.3
123598
73014.7
143894
181647
53531.9
34387.9
49551.4
91521.4
196368
93378.9
67491.4
48747.7
78008.7
57756.1
145222
94810.7
17634.1
102913
39865.2
184146
198736
89628.6
85897
104992
71503.5
153680
113173
90004.4
86630
86033.2
32857
172546
115440
42096.4
51077.6
41760.7
146463
133772
33741.2
148449
78624.6
65485.5
47081.2
38524.7
46755.6
34956.2
52094.4
29652.2
96720.5
143988
76069.8
109803
56333.3
47450.6
89786.6
59499.8
117858
54287.5
120289
32851.5
96411.4
20135
24372.4
15759.1
10860.6
107548
111414
103832
145376
47662.7
21632.9
21468.3
34490.6
83185.8
75922.8
91492.2
76269.2
138647
39430.3
148371
77088.2
30119.9
58720.2
22953.7
172011
178631
39085
119122
88516.8
64345.7
106723
85442
108151
255631
114674
58035.6
122298
220389
77874.6
163044
66381.3
95533.1
59532.8
136446
40072.3
29312.6
108238
79248.9
199837
218411
39121.9
97363.9
79044.2
91193.8
182039
46748.2
130156
58877.6
64267.2
29672.4
113392
125357
62224.8
78470.5
43913.4
154622
183386
73461.7
203448
63142.3
61171.1
46497.3
27079.3
113705
34926
106198
55912.6
120176
107985
82926.5
66227.3
35572.3
70572.4
59058.1
65078.6
118536
48064.1
136189
76265.7
115661
33975.1
60698.8
83772
46162.6
154243
125914
118397
149588
30890.8
12353.3
45136.2
65439.7
130325
46287.9
130793
53261.5
118953
34153.2
102580
53611
24404.6
47749.7
44672.9
147370
239865
46476.9
193745
73246.4
65671.6
129367
32320.8
149577
83658.4
103328
48907.2
148154
63024.8
63339.1
101778
71841.6
116197
146316
99196.3
201709
76379
39290.4
15392.2
45735.8
28091.3
91257.7
82412.7
67287.7
207269
146699
105349
123252
62684.8
93485.2
123039
48743.4
142956
60818.4
87248.4
48115.6
145511
66583.9
92215.6
87811.4
81587.9
207204
112544
114653
205629
117693
45665.3
60521.3
53731.7
165792
91827.5
101984
63863.5
170040
42720.9
155492
106430
55960.1
85161.3
35321.6
136140
165921
45007.2
133339
39096.2
71984.3
53222.8
41211.9
61893.4
21543
112978
79933.4
129900
158406
72803.7
56724.7
75160
74882.4
112347
73439.2
127466
49957.7
139494
11847.3
72537.8
45396
33020.5
69717.2
32498.9
154843
172023
84682.9
120763
32973.8
31675.7
61675.9
13649.8
98953.4
57714.5
130569
50670.4
204737
43925.5
116844
59823.5
73988.9
150348
72594.1
162696
192007
62802.2
31214.4
25460.4
40163.9
121582
199496
217626
108956
86384
74803.8
52436.6
184016
80866.4
113213
41550.1
112037
46223.4
81789
83500.6
48258
157932
100543
111793
193551
80231.3
29035
43732.6
39266.8
154187
62390.3
61722.2
26034.1
69810.5
63551.7
109134
129455
67023.6
68898.3
67294.9
147965
178322
57896.4
128337
54929.4
36208.1
54927
50627.7
74604.2
32392.6
94547.3
69215.3
111394
102344
54015.9
32009.6
24914.3
72311.3
61132
33842
116812
39455.5
138877
59521.3
88933.5
75414.1
27370.7
109021
41450.8
144796
134757
66183.8
110161
18087.7
35611.5
54021
21285.7
111569
43464.9
113066
29817
122094
16200.3
62853.3
69469.4
70793.3
76577.4
98774.3
124391
227548
90351.2
77014.9
60456.1
46071.2
121516
84430.7
77960
43787.7
98155.9
30364.9
140083
111813
13811.7
18483.9
55408.5
128140
169707
56331.4
110310
29583
37063.4
13053.9
69113.6
64164.4
35688.2
141882
56034.9
177546
160963
31826.4
58012.3
17921
71253.2
126399
45088.5
66772.6
32205.6
92117.9
52239.6
155548
106177
35572.2
78074.7
58596.7
198155
151663
26470.2
113639
76574.5
42798.1
108534
84647.1
100073
76470.3
91354.5
65803.2
179164
83229.3
76305.9
64915.8
53952.2
107115
63978.1
76004.6
145839
23507.3
113512
39596.5
58702.6
51563.1
27186.3
65952.7
20966.4
118138
99146.3
109548
117516
68813.2
61029.1
61167.1
83383.9
82000.3
69416.1
112223
44004.7
127573
29633.4
38288.1
27755
51510.4
96897.9
82876.9
141122
146371
73155.3
49194
32487.5
20891.8
57773.5
45714.7
80765.3
43387.7
146348
53078.8
184575
91143.7
45030.2
44479.8
58607.3
165366
121121
76824.2
128898
37218.3
34974.8
74969.8
52062.6
121858
207161
115028
91116.5
107228
103865
59645.6
159732
52378.7
124591
67505.6
105891
24872.5
81023.5
102673
106725
209276
83871.1
60693.2
73086.7
83316.1
74254.6
63237.3
49036.8
84993.3
37668.7
38074.3
31707.6
102763
88014.7
69215.6
69023.7
57365.6
149362
93078.1
175271
147944
55832.9
66952.3
49689.7
69186.2
78898.7
80287.8
81307.2
50521.3
95165.7
38543.1
71671
59749.1
38500.6
37865.4
28203.2
84780
56359.9
41133.5
126059
37907.8
133733
16262.2
67425.1
75552.3
89648.3
173339
50439
166409
62762.2
68796.4
15888.8
65944
90436.6
32169.2
41142.6
63410.6
29326.3
91013.2
33599.3
98336.6
62152.5
22981.9
14748.3
62007.8
161020
138643
121127
170199
38931.3
72404.6
89763.4
83291.3
112882
57618.4
88740.8
96346.4
105453
31639
39269.3
91600.8
88835.5
63299.6
31386.7
122419
132110
40160.1
65904.9
7710.99
43445.1
13860.4
39728
62685.3
85706.1
209625
53768.8
157264
47482.8
74222.3
89100.6
54100.3
103159
52571.8
72120.6
32926.2
69323.2
103619
53877.8
73009.2
81465.1
94721.7
140406
24854
164452
134746
15433.4
61014.3
36546.4
54408
116769
41485.1
102982
138190
126826
88133.7
121433
66133.3
74599
47786.7
98474.4
115043
43509.6
52775.4
107594
18459.2
86591.1
23878.9
25460.4
41662.8
67020
99059
39573.5
148781
72739.2
107900
38075.4
78080.8
90702.2
67990.2
136399
54851.1
121469
67969.6
49916.6
50385
82076.5
53474
19380.1
53678.9
126097
86107.2
121273
101655
51866.1
25501.8
44045.7
36247
54102.8
53131.9
90656.1
120651
169740
54647.1
105112
60699.6
125012
103825
88606.7
156748
73427.8
51512.8
35674.4
32976.2
20172.3
46255.8
89297.3
125250
127935
68311.3
23641.4
32764.9
50040.7
116650
60808.3
104503
92445.8
72509.8
92617.2
20095.2
96594.2
110022
136014
116188
92223.1
47080.4
39283.6
64820.2
45798.5
97571.5
55316.9
61734.6
55123.9
34817.2
22817.9
63590.5
53483.4
59926
41062.4
52282.4
89584.1
141076
100604
124122
52788.4
82344.7
76959.2
74065.4
114241
63934.5
108792
45969.7
89811.2
24626.1
63072
22440.9
36486
60390.8
48320
48740
26682.2
59482.5
61135.4
93611.8
63703.2
63295.6
79244.3
49669.9
130014
104951
137979
100306
76161.1
76940.2
39386.4
101523
56109.5
80922.1
43189.7
57957.9
64683
59665.7
48763.5
30626.6
16297.9
38637.5
31256.4
40947.2
91618.5
116189
117441
93532.4
40651.6
84053.2
100177
97904.4
111250
75281.7
125114
67617.9
111086
14863.5
39277.2
62021.6
32463.5
78362.2
64025.7
85015.9
47724.6
52150.9
16640.8
18776
30119
30117.7
47825.3
57478.6
129443
109368
145626
77743.4
61109
94149.2
53205.3
133735
59162.2
97591
80373.1
60227.9
62798
61685.2
24784
51996.9
27951.1
57041
86117.2
92434.6
65212.9
52085.5
53955.9
38045.9
51729.2
93477.8
68940.4
101551
114741
98547.2
152852
63011.8
98704.5
36808.6
55016.3
115685
66091.1
90491
33673.7
59382.4
35255.7
64275.3
22016.1
32654.9
34124.2
29950.8
60160.2
55211.1
88169
79257.2
101512
72578.1
69690.7
101761
57746.1
138466
81677.7
124918
90415.3
81608.6
59633.9
31455
61515.7
58028.9
61146.1
30521.9
78358.2
67480.8
83945.5
53374.7
28597
35897.4
40451.2
45810.8
50006.8
73987.1
101523
111382
141396
67576.1
87234.3
61559.8
85813.7
140116
95266.6
106317
41232.7
50393.2
43812.9
50303
39047.7
84658.8
81013.3
215427
164117
99542.1
104291
154922
202521
170824
154132
182113
68407
140915
181992
208992
271332
266537
148234
93304.7
91650
117432
173243
83659.2
181052
75048.5
123679
78443.9
69956.4
98322.4
86206.5
85783.5
27045.4
57671.5
244100
91085.9
329758
101368
203089
89393.4
113800
232459
88724.3
281564
75746
224102
72413.2
119487
46844.4
64280.2
107485
70324.2
134170
108820
91560.1
82638
162682
66023.1
153181
90896.3
56476.3
179715
200877
276756
209986
238913
146820
79456.5
171474
143434
210464
125441
151715
97376.9
105987
92620.3
70084
61293.2
62168
73497.2
37222.3
106807
214678
130355
246864
122892
140602
132790
132418
263247
121102
277572
87928.8
267988
65302.6
140039
88353.3
77981.9
192757
71531.5
132601
158085
108584
76843.2
81739
9798.54
44081.3
29856.3
55264.6
156946
159048
298866
155177
218716
137035
79994.4
235205
133127
255678
148881
182326
149646
108458
94135.9
76484.5
48246.6
90758.9
142829
146625
109079
203904
104662
76742.1
54839.9
89842.1
106810
150758
209735
116357
324049
107005
268020
61203.7
113998
198279
83236.2
274166
109378
148173
60702.6
118565
16269.6
83132.8
28867.2
40286.9
61335.8
136847
140651
132356
212660
88683.9
159598
124179
73825.6
244686
138723
292016
167291
234172
129310
98868.3
107810
127379
160046
95064.9
142834
126930
85660.1
165405
71434.5
83429.8
55551.4
50600.5
123375
70093.3
190880
115652
277759
142500
217041
59723.8
107255
273219
139519
295627
157024
147254
47781.7
100122
112340
71741.1
134328
171656
229552
